*Heading
** Job name: Job-45 Model name: kaikou-shiyan-buckleimperfection
** Generated by: Abaqus/CAE 2024
*Preprint, echo=NO, model=NO, history=NO, contact=NO
** ----------------------------------------------------------------
** 
** PART INSTANCE: Part-3-2
** 
*Node
      1,        -450.,           0.,        -375.
      2,        -200.,           0.,        -375.
      3,        -200.,           0.,           0.
      4,        -450.,           0.,           0.
      5,        -450.,           0.,        -525.
      6,        -200.,           0.,        -525.
      7,         200.,           0.,        -375.
      8,         450.,           0.,        -375.
      9,         450.,           0.,           0.
     10,         200.,           0.,           0.
     11,         450.,           0.,        -525.
     12,         200.,           0.,        -525.
     13,         200.,           0.,        -900.
     14,         450.,           0.,        -900.
     15,          75.,           0.,        -375.
     16,          75.,           0.,           0.
     17,          75.,           0.,        -525.
     18,          75.,           0.,        -900.
     19,         -75.,           0.,        -525.
     20,        -200.,           0.,        -900.
     21,         -75.,           0.,        -900.
     22,         -75.,           0.,        -375.
     23,         -75.,           0.,           0.
     24,         450.,         100.,           0.
     25,         450.,         100.,        -900.
     26,         200.,         100.,           0.
     27,         200.,         100.,        -900.
     28,        -200.,         100.,           0.
     29,        -200.,         100.,        -900.
     30,        -450.,         100.,           0.
     31,        -450.,         100.,        -900.
     32,        -450.,           0.,        -900.
     33,        -400.,           0.,        -375.
     34,        -350.,           0.,        -375.
     35,        -300.,           0.,        -375.
     36,        -250.,           0.,        -375.
     37,        -200.,           0.,     -328.125
     38,        -200.,           0.,      -281.25
     39,        -200.,           0.,     -234.375
     40,        -200.,           0.,       -187.5
     41,        -200.,           0.,     -140.625
     42,        -200.,           0.,       -93.75
     43,        -200.,           0.,      -46.875
     44,        -250.,           0.,           0.
     45,        -300.,           0.,           0.
     46,        -350.,           0.,           0.
     47,        -400.,           0.,           0.
     48,        -450.,           0.,      -46.875
     49,        -450.,           0.,       -93.75
     50,        -450.,           0.,     -140.625
     51,        -450.,           0.,       -187.5
     52,        -450.,           0.,     -234.375
     53,        -450.,           0.,      -281.25
     54,        -450.,           0.,     -328.125
     55,        -400.,           0.,        -525.
     56,        -350.,           0.,        -525.
     57,        -300.,           0.,        -525.
     58,        -250.,           0.,        -525.
     59,        -200.,           0.,        -475.
     60,        -200.,           0.,        -425.
     61,        -450.,           0.,        -425.
     62,        -450.,           0.,        -475.
     63,         250.,           0.,        -375.
     64,         300.,           0.,        -375.
     65,         350.,           0.,        -375.
     66,         400.,           0.,        -375.
     67,         450.,           0.,     -328.125
     68,         450.,           0.,      -281.25
     69,         450.,           0.,     -234.375
     70,         450.,           0.,       -187.5
     71,         450.,           0.,     -140.625
     72,         450.,           0.,       -93.75
     73,         450.,           0.,      -46.875
     74,         400.,           0.,           0.
     75,         350.,           0.,           0.
     76,         300.,           0.,           0.
     77,         250.,           0.,           0.
     78,         200.,           0.,      -46.875
     79,         200.,           0.,       -93.75
     80,         200.,           0.,     -140.625
     81,         200.,           0.,       -187.5
     82,         200.,           0.,     -234.375
     83,         200.,           0.,      -281.25
     84,         200.,           0.,     -328.125
     85,         400.,           0.,        -525.
     86,         350.,           0.,        -525.
     87,         300.,           0.,        -525.
     88,         250.,           0.,        -525.
     89,         200.,           0.,     -571.875
     90,         200.,           0.,      -618.75
     91,         200.,           0.,     -665.625
     92,         200.,           0.,       -712.5
     93,         200.,           0.,     -759.375
     94,         200.,           0.,      -806.25
     95,         200.,           0.,     -853.125
     96,         250.,           0.,        -900.
     97,         300.,           0.,        -900.
     98,         350.,           0.,        -900.
     99,         400.,           0.,        -900.
    100,         450.,           0.,     -853.125
    101,         450.,           0.,      -806.25
    102,         450.,           0.,     -759.375
    103,         450.,           0.,       -712.5
    104,         450.,           0.,     -665.625
    105,         450.,           0.,      -618.75
    106,         450.,           0.,     -571.875
    107,   116.666664,           0.,        -375.
    108,   158.333328,           0.,        -375.
    109,   158.333328,           0.,           0.
    110,   116.666664,           0.,           0.
    111,          75.,           0.,      -46.875
    112,          75.,           0.,       -93.75
    113,          75.,           0.,     -140.625
    114,          75.,           0.,       -187.5
    115,          75.,           0.,     -234.375
    116,          75.,           0.,      -281.25
    117,          75.,           0.,     -328.125
    118,   158.333328,           0.,        -525.
    119,   116.666664,           0.,        -525.
    120,          75.,           0.,     -571.875
    121,          75.,           0.,      -618.75
    122,          75.,           0.,     -665.625
    123,          75.,           0.,       -712.5
    124,          75.,           0.,     -759.375
    125,          75.,           0.,      -806.25
    126,          75.,           0.,     -853.125
    127,   116.666664,           0.,        -900.
    128,   158.333328,           0.,        -900.
    129,  -116.666664,           0.,        -525.
    130,  -158.333328,           0.,        -525.
    131,        -200.,           0.,     -571.875
    132,        -200.,           0.,      -618.75
    133,        -200.,           0.,     -665.625
    134,        -200.,           0.,       -712.5
    135,        -200.,           0.,     -759.375
    136,        -200.,           0.,      -806.25
    137,        -200.,           0.,     -853.125
    138,  -158.333328,           0.,        -900.
    139,  -116.666664,           0.,        -900.
    140,         -75.,           0.,     -853.125
    141,         -75.,           0.,      -806.25
    142,         -75.,           0.,     -759.375
    143,         -75.,           0.,       -712.5
    144,         -75.,           0.,     -665.625
    145,         -75.,           0.,      -618.75
    146,         -75.,           0.,     -571.875
    147,  -158.333328,           0.,        -375.
    148,  -116.666664,           0.,        -375.
    149,         -75.,           0.,     -328.125
    150,         -75.,           0.,      -281.25
    151,         -75.,           0.,     -234.375
    152,         -75.,           0.,       -187.5
    153,         -75.,           0.,     -140.625
    154,         -75.,           0.,       -93.75
    155,         -75.,           0.,      -46.875
    156,  -116.666664,           0.,           0.
    157,  -158.333328,           0.,           0.
    158,         200.,           0.,        -475.
    159,         200.,           0.,        -425.
    160,          75.,           0.,        -425.
    161,          75.,           0.,        -475.
    162,         -25.,           0.,        -900.
    163,          25.,           0.,        -900.
    164,          25.,           0.,        -525.
    165,         -25.,           0.,        -525.
    166,         -25.,           0.,        -375.
    167,          25.,           0.,        -375.
    168,          25.,           0.,           0.
    169,         -25.,           0.,           0.
    170,         450.,          50.,           0.
    171,         450.,         100.,  -47.3684196
    172,         450.,         100.,  -94.7368393
    173,         450.,         100.,   -142.10527
    174,         450.,         100.,  -189.473679
    175,         450.,         100.,  -236.842102
    176,         450.,         100.,  -284.210541
    177,         450.,         100.,  -331.578949
    178,         450.,         100.,  -378.947357
    179,         450.,         100.,  -426.315796
    180,         450.,         100.,  -473.684204
    181,         450.,         100.,  -521.052612
    182,         450.,         100.,  -568.421082
    183,         450.,         100.,   -615.78949
    184,         450.,         100.,  -663.157898
    185,         450.,         100.,  -710.526306
    186,         450.,         100.,  -757.894714
    187,         450.,         100.,  -805.263184
    188,         450.,         100.,  -852.631592
    189,         450.,          50.,        -900.
    190,         450.,           0.,        -475.
    191,         450.,           0.,        -425.
    192,         200.,          50.,           0.
    193,         200.,         100.,  -47.3684196
    194,         200.,         100.,  -94.7368393
    195,         200.,         100.,   -142.10527
    196,         200.,         100.,  -189.473679
    197,         200.,         100.,  -236.842102
    198,         200.,         100.,  -284.210541
    199,         200.,         100.,  -331.578949
    200,         200.,         100.,  -378.947357
    201,         200.,         100.,  -426.315796
    202,         200.,         100.,  -473.684204
    203,         200.,         100.,  -521.052612
    204,         200.,         100.,  -568.421082
    205,         200.,         100.,   -615.78949
    206,         200.,         100.,  -663.157898
    207,         200.,         100.,  -710.526306
    208,         200.,         100.,  -757.894714
    209,         200.,         100.,  -805.263184
    210,         200.,         100.,  -852.631592
    211,         200.,          50.,        -900.
    212,        -200.,          50.,           0.
    213,        -200.,         100.,  -47.3684196
    214,        -200.,         100.,  -94.7368393
    215,        -200.,         100.,   -142.10527
    216,        -200.,         100.,  -189.473679
    217,        -200.,         100.,  -236.842102
    218,        -200.,         100.,  -284.210541
    219,        -200.,         100.,  -331.578949
    220,        -200.,         100.,  -378.947357
    221,        -200.,         100.,  -426.315796
    222,        -200.,         100.,  -473.684204
    223,        -200.,         100.,  -521.052612
    224,        -200.,         100.,  -568.421082
    225,        -200.,         100.,   -615.78949
    226,        -200.,         100.,  -663.157898
    227,        -200.,         100.,  -710.526306
    228,        -200.,         100.,  -757.894714
    229,        -200.,         100.,  -805.263184
    230,        -200.,         100.,  -852.631592
    231,        -200.,          50.,        -900.
    232,         -75.,           0.,        -475.
    233,         -75.,           0.,        -425.
    234,        -450.,          50.,           0.
    235,        -450.,         100.,  -47.3684196
    236,        -450.,         100.,  -94.7368393
    237,        -450.,         100.,   -142.10527
    238,        -450.,         100.,  -189.473679
    239,        -450.,         100.,  -236.842102
    240,        -450.,         100.,  -284.210541
    241,        -450.,         100.,  -331.578949
    242,        -450.,         100.,  -378.947357
    243,        -450.,         100.,  -426.315796
    244,        -450.,         100.,  -473.684204
    245,        -450.,         100.,  -521.052612
    246,        -450.,         100.,  -568.421082
    247,        -450.,         100.,   -615.78949
    248,        -450.,         100.,  -663.157898
    249,        -450.,         100.,  -710.526306
    250,        -450.,         100.,  -757.894714
    251,        -450.,         100.,  -805.263184
    252,        -450.,         100.,  -852.631592
    253,        -450.,          50.,        -900.
    254,        -450.,           0.,     -853.125
    255,        -450.,           0.,      -806.25
    256,        -450.,           0.,     -759.375
    257,        -450.,           0.,       -712.5
    258,        -450.,           0.,     -665.625
    259,        -450.,           0.,      -618.75
    260,        -450.,           0.,     -571.875
    261,        -400.,           0.,        -900.
    262,        -350.,           0.,        -900.
    263,        -300.,           0.,        -900.
    264,        -250.,           0.,        -900.
    265,        -400.,           0.,     -328.125
    266,        -350.,           0.,     -328.125
    267,        -300.,           0.,     -328.125
    268,        -250.,           0.,     -328.125
    269,        -400.,           0.,      -281.25
    270,        -350.,           0.,      -281.25
    271,        -300.,           0.,      -281.25
    272,        -250.,           0.,      -281.25
    273,        -400.,           0.,     -234.375
    274,        -350.,           0.,     -234.375
    275,        -300.,           0.,     -234.375
    276,        -250.,           0.,     -234.375
    277,        -400.,           0.,       -187.5
    278,        -350.,           0.,       -187.5
    279,        -300.,           0.,       -187.5
    280,        -250.,           0.,       -187.5
    281,        -400.,           0.,     -140.625
    282,        -350.,           0.,     -140.625
    283,        -300.,           0.,     -140.625
    284,        -250.,           0.,     -140.625
    285,        -400.,           0.,       -93.75
    286,        -350.,           0.,       -93.75
    287,        -300.,           0.,       -93.75
    288,        -250.,           0.,       -93.75
    289,        -400.,           0.,      -46.875
    290,        -350.,           0.,      -46.875
    291,        -300.,           0.,      -46.875
    292,        -250.,           0.,      -46.875
    293,        -400.,           0.,        -475.
    294,        -350.,           0.,        -475.
    295,        -300.,           0.,        -475.
    296,        -250.,           0.,        -475.
    297,        -400.,           0.,        -425.
    298,        -350.,           0.,        -425.
    299,        -300.,           0.,        -425.
    300,        -250.,           0.,        -425.
    301,         250.,           0.,     -328.125
    302,         300.,           0.,     -328.125
    303,         350.,           0.,     -328.125
    304,         400.,           0.,     -328.125
    305,         250.,           0.,      -281.25
    306,         300.,           0.,      -281.25
    307,         350.,           0.,      -281.25
    308,         400.,           0.,      -281.25
    309,         250.,           0.,     -234.375
    310,         300.,           0.,     -234.375
    311,         350.,           0.,     -234.375
    312,         400.,           0.,     -234.375
    313,         250.,           0.,       -187.5
    314,         300.,           0.,       -187.5
    315,         350.,           0.,       -187.5
    316,         400.,           0.,       -187.5
    317,         250.,           0.,     -140.625
    318,         300.,           0.,     -140.625
    319,         350.,           0.,     -140.625
    320,         400.,           0.,     -140.625
    321,         250.,           0.,       -93.75
    322,         300.,           0.,       -93.75
    323,         350.,           0.,       -93.75
    324,         400.,           0.,       -93.75
    325,         250.,           0.,      -46.875
    326,         300.,           0.,      -46.875
    327,         350.,           0.,      -46.875
    328,         400.,           0.,      -46.875
    329,         400.,           0.,     -571.875
    330,         350.,           0.,     -571.875
    331,         300.,           0.,     -571.875
    332,         250.,           0.,     -571.875
    333,         400.,           0.,      -618.75
    334,         350.,           0.,      -618.75
    335,         300.,           0.,      -618.75
    336,         250.,           0.,      -618.75
    337,         400.,           0.,     -665.625
    338,         350.,           0.,     -665.625
    339,         300.,           0.,     -665.625
    340,         250.,           0.,     -665.625
    341,         400.,           0.,       -712.5
    342,         350.,           0.,       -712.5
    343,         300.,           0.,       -712.5
    344,         250.,           0.,       -712.5
    345,         400.,           0.,     -759.375
    346,         350.,           0.,     -759.375
    347,         300.,           0.,     -759.375
    348,         250.,           0.,     -759.375
    349,         400.,           0.,      -806.25
    350,         350.,           0.,      -806.25
    351,         300.,           0.,      -806.25
    352,         250.,           0.,      -806.25
    353,         400.,           0.,     -853.125
    354,         350.,           0.,     -853.125
    355,         300.,           0.,     -853.125
    356,         250.,           0.,     -853.125
    357,   116.666664,           0.,     -328.125
    358,   158.333328,           0.,     -328.125
    359,   116.666664,           0.,      -281.25
    360,   158.333328,           0.,      -281.25
    361,   116.666664,           0.,     -234.375
    362,   158.333328,           0.,     -234.375
    363,   116.666664,           0.,       -187.5
    364,   158.333328,           0.,       -187.5
    365,   116.666664,           0.,     -140.625
    366,   158.333328,           0.,     -140.625
    367,   116.666664,           0.,       -93.75
    368,   158.333328,           0.,       -93.75
    369,   116.666664,           0.,      -46.875
    370,   158.333328,           0.,      -46.875
    371,   158.333328,           0.,     -571.875
    372,   116.666664,           0.,     -571.875
    373,   158.333328,           0.,      -618.75
    374,   116.666664,           0.,      -618.75
    375,   158.333328,           0.,     -665.625
    376,   116.666664,           0.,     -665.625
    377,   158.333328,           0.,       -712.5
    378,   116.666664,           0.,       -712.5
    379,   158.333328,           0.,     -759.375
    380,   116.666664,           0.,     -759.375
    381,   158.333328,           0.,      -806.25
    382,   116.666664,           0.,      -806.25
    383,   158.333328,           0.,     -853.125
    384,   116.666664,           0.,     -853.125
    385,  -116.666664,           0.,     -571.875
    386,  -158.333328,           0.,     -571.875
    387,  -116.666664,           0.,      -618.75
    388,  -158.333328,           0.,      -618.75
    389,  -116.666664,           0.,     -665.625
    390,  -158.333328,           0.,     -665.625
    391,  -116.666664,           0.,       -712.5
    392,  -158.333328,           0.,       -712.5
    393,  -116.666664,           0.,     -759.375
    394,  -158.333328,           0.,     -759.375
    395,  -116.666664,           0.,      -806.25
    396,  -158.333328,           0.,      -806.25
    397,  -116.666664,           0.,     -853.125
    398,  -158.333328,           0.,     -853.125
    399,  -158.333328,           0.,     -328.125
    400,  -116.666664,           0.,     -328.125
    401,  -158.333328,           0.,      -281.25
    402,  -116.666664,           0.,      -281.25
    403,  -158.333328,           0.,     -234.375
    404,  -116.666664,           0.,     -234.375
    405,  -158.333328,           0.,       -187.5
    406,  -116.666664,           0.,       -187.5
    407,  -158.333328,           0.,     -140.625
    408,  -116.666664,           0.,     -140.625
    409,  -158.333328,           0.,       -93.75
    410,  -116.666664,           0.,       -93.75
    411,  -158.333328,           0.,      -46.875
    412,  -116.666664,           0.,      -46.875
    413,   116.666664,           0.,        -475.
    414,   158.333328,           0.,        -475.
    415,   116.666664,           0.,        -425.
    416,   158.333328,           0.,        -425.
    417,         -25.,           0.,     -571.875
    418,         -25.,           0.,      -618.75
    419,         -25.,           0.,     -665.625
    420,         -25.,           0.,       -712.5
    421,         -25.,           0.,     -759.375
    422,         -25.,           0.,      -806.25
    423,         -25.,           0.,     -853.125
    424,          25.,           0.,     -571.875
    425,          25.,           0.,      -618.75
    426,          25.,           0.,     -665.625
    427,          25.,           0.,       -712.5
    428,          25.,           0.,     -759.375
    429,          25.,           0.,      -806.25
    430,          25.,           0.,     -853.125
    431,         -25.,           0.,      -46.875
    432,         -25.,           0.,       -93.75
    433,         -25.,           0.,     -140.625
    434,         -25.,           0.,       -187.5
    435,         -25.,           0.,     -234.375
    436,         -25.,           0.,      -281.25
    437,         -25.,           0.,     -328.125
    438,          25.,           0.,      -46.875
    439,          25.,           0.,       -93.75
    440,          25.,           0.,     -140.625
    441,          25.,           0.,       -187.5
    442,          25.,           0.,     -234.375
    443,          25.,           0.,      -281.25
    444,          25.,           0.,     -328.125
    445,         450.,          50.,  -47.1217117
    446,         450.,          50.,  -94.2434235
    447,         450.,          50.,  -141.365128
    448,         450.,          50.,  -188.486847
    449,         450.,          50.,  -235.608551
    450,         450.,          50.,  -282.730255
    451,         450.,          50.,  -329.851959
    452,         450.,          50.,  -376.973694
    453,         450.,          50.,  -425.657898
    454,         450.,          50.,  -474.342102
    455,         450.,          50.,  -523.026306
    456,         450.,          50.,   -570.14801
    457,         450.,          50.,  -617.269714
    458,         450.,          50.,  -664.391418
    459,         450.,          50.,  -711.513184
    460,         450.,          50.,  -758.634888
    461,         450.,          50.,  -805.756592
    462,         450.,          50.,  -852.878296
    463,         200.,          50.,  -47.1217117
    464,         200.,          50.,  -94.2434235
    465,         200.,          50.,  -141.365128
    466,         200.,          50.,  -188.486847
    467,         200.,          50.,  -235.608551
    468,         200.,          50.,  -282.730255
    469,         200.,          50.,  -329.851959
    470,         200.,          50.,  -376.973694
    471,         200.,          50.,  -425.657898
    472,         200.,          50.,  -474.342102
    473,         200.,          50.,  -523.026306
    474,         200.,          50.,   -570.14801
    475,         200.,          50.,  -617.269714
    476,         200.,          50.,  -664.391418
    477,         200.,          50.,  -711.513184
    478,         200.,          50.,  -758.634888
    479,         200.,          50.,  -805.756592
    480,         200.,          50.,  -852.878296
    481,         250.,           0.,        -475.
    482,         300.,           0.,        -475.
    483,         350.,           0.,        -475.
    484,         400.,           0.,        -475.
    485,         250.,           0.,        -425.
    486,         300.,           0.,        -425.
    487,         350.,           0.,        -425.
    488,         400.,           0.,        -425.
    489,        -200.,          50.,  -47.1217117
    490,        -200.,          50.,  -94.2434235
    491,        -200.,          50.,  -141.365128
    492,        -200.,          50.,  -188.486847
    493,        -200.,          50.,  -235.608551
    494,        -200.,          50.,  -282.730255
    495,        -200.,          50.,  -329.851959
    496,        -200.,          50.,  -376.973694
    497,        -200.,          50.,  -425.657898
    498,        -200.,          50.,  -474.342102
    499,        -200.,          50.,  -523.026306
    500,        -200.,          50.,   -570.14801
    501,        -200.,          50.,  -617.269714
    502,        -200.,          50.,  -664.391418
    503,        -200.,          50.,  -711.513184
    504,        -200.,          50.,  -758.634888
    505,        -200.,          50.,  -805.756592
    506,        -200.,          50.,  -852.878296
    507,  -116.666664,           0.,        -425.
    508,  -158.333328,           0.,        -425.
    509,  -116.666664,           0.,        -475.
    510,  -158.333328,           0.,        -475.
    511,        -450.,          50.,  -47.1217117
    512,        -450.,          50.,  -94.2434235
    513,        -450.,          50.,  -141.365128
    514,        -450.,          50.,  -188.486847
    515,        -450.,          50.,  -235.608551
    516,        -450.,          50.,  -282.730255
    517,        -450.,          50.,  -329.851959
    518,        -450.,          50.,  -376.973694
    519,        -450.,          50.,  -425.657898
    520,        -450.,          50.,  -474.342102
    521,        -450.,          50.,  -523.026306
    522,        -450.,          50.,   -570.14801
    523,        -450.,          50.,  -617.269714
    524,        -450.,          50.,  -664.391418
    525,        -450.,          50.,  -711.513184
    526,        -450.,          50.,  -758.634888
    527,        -450.,          50.,  -805.756592
    528,        -450.,          50.,  -852.878296
    529,        -250.,           0.,     -571.875
    530,        -300.,           0.,     -571.875
    531,        -350.,           0.,     -571.875
    532,        -400.,           0.,     -571.875
    533,        -250.,           0.,      -618.75
    534,        -300.,           0.,      -618.75
    535,        -350.,           0.,      -618.75
    536,        -400.,           0.,      -618.75
    537,        -250.,           0.,     -665.625
    538,        -300.,           0.,     -665.625
    539,        -350.,           0.,     -665.625
    540,        -400.,           0.,     -665.625
    541,        -250.,           0.,       -712.5
    542,        -300.,           0.,       -712.5
    543,        -350.,           0.,       -712.5
    544,        -400.,           0.,       -712.5
    545,        -250.,           0.,     -759.375
    546,        -300.,           0.,     -759.375
    547,        -350.,           0.,     -759.375
    548,        -400.,           0.,     -759.375
    549,        -250.,           0.,      -806.25
    550,        -300.,           0.,      -806.25
    551,        -350.,           0.,      -806.25
    552,        -400.,           0.,      -806.25
    553,        -250.,           0.,     -853.125
    554,        -300.,           0.,     -853.125
    555,        -350.,           0.,     -853.125
    556,        -400.,           0.,     -853.125
*Element, type=S4R
 1,   1,  33, 265,  54
 2,  33,  34, 266, 265
 3,  34,  35, 267, 266
 4,  35,  36, 268, 267
 5,  36,   2,  37, 268
 6,  54, 265, 269,  53
 7, 265, 266, 270, 269
 8, 266, 267, 271, 270
 9, 267, 268, 272, 271
10, 268,  37,  38, 272
11,  53, 269, 273,  52
12, 269, 270, 274, 273
13, 270, 271, 275, 274
14, 271, 272, 276, 275
15, 272,  38,  39, 276
16,  52, 273, 277,  51
17, 273, 274, 278, 277
18, 274, 275, 279, 278
19, 275, 276, 280, 279
20, 276,  39,  40, 280
21,  51, 277, 281,  50
22, 277, 278, 282, 281
23, 278, 279, 283, 282
24, 279, 280, 284, 283
25, 280,  40,  41, 284
26,  50, 281, 285,  49
27, 281, 282, 286, 285
28, 282, 283, 287, 286
29, 283, 284, 288, 287
30, 284,  41,  42, 288
31,  49, 285, 289,  48
32, 285, 286, 290, 289
33, 286, 287, 291, 290
34, 287, 288, 292, 291
35, 288,  42,  43, 292
36,  48, 289,  47,   4
37, 289, 290,  46,  47
38, 290, 291,  45,  46
39, 291, 292,  44,  45
40, 292,  43,   3,  44
41,   5,  55, 293,  62
42,  55,  56, 294, 293
43,  56,  57, 295, 294
44,  57,  58, 296, 295
45,  58,   6,  59, 296
46,  62, 293, 297,  61
47, 293, 294, 298, 297
48, 294, 295, 299, 298
49, 295, 296, 300, 299
50, 296,  59,  60, 300
51,  61, 297,  33,   1
52, 297, 298,  34,  33
53, 298, 299,  35,  34
54, 299, 300,  36,  35
55, 300,  60,   2,  36
56,   7,  63, 301,  84
57,  63,  64, 302, 301
58,  64,  65, 303, 302
59,  65,  66, 304, 303
60,  66,   8,  67, 304
61,  84, 301, 305,  83
62, 301, 302, 306, 305
63, 302, 303, 307, 306
64, 303, 304, 308, 307
65, 304,  67,  68, 308
66,  83, 305, 309,  82
67, 305, 306, 310, 309
68, 306, 307, 311, 310
69, 307, 308, 312, 311
70, 308,  68,  69, 312
71,  82, 309, 313,  81
72, 309, 310, 314, 313
73, 310, 311, 315, 314
74, 311, 312, 316, 315
75, 312,  69,  70, 316
76,  81, 313, 317,  80
77, 313, 314, 318, 317
78, 314, 315, 319, 318
79, 315, 316, 320, 319
80, 316,  70,  71, 320
81,  80, 317, 321,  79
82, 317, 318, 322, 321
83, 318, 319, 323, 322
84, 319, 320, 324, 323
85, 320,  71,  72, 324
86,  79, 321, 325,  78
87, 321, 322, 326, 325
88, 322, 323, 327, 326
89, 323, 324, 328, 327
90, 324,  72,  73, 328
91,  78, 325,  77,  10
92, 325, 326,  76,  77
93, 326, 327,  75,  76
94, 327, 328,  74,  75
95, 328,  73,   9,  74
 96,  11,  85, 329, 106
 97,  85,  86, 330, 329
 98,  86,  87, 331, 330
 99,  87,  88, 332, 331
100,  88,  12,  89, 332
101, 106, 329, 333, 105
102, 329, 330, 334, 333
103, 330, 331, 335, 334
104, 331, 332, 336, 335
105, 332,  89,  90, 336
106, 105, 333, 337, 104
107, 333, 334, 338, 337
108, 334, 335, 339, 338
109, 335, 336, 340, 339
110, 336,  90,  91, 340
111, 104, 337, 341, 103
112, 337, 338, 342, 341
113, 338, 339, 343, 342
114, 339, 340, 344, 343
115, 340,  91,  92, 344
116, 103, 341, 345, 102
117, 341, 342, 346, 345
118, 342, 343, 347, 346
119, 343, 344, 348, 347
120, 344,  92,  93, 348
121, 102, 345, 349, 101
122, 345, 346, 350, 349
123, 346, 347, 351, 350
124, 347, 348, 352, 351
125, 348,  93,  94, 352
126, 101, 349, 353, 100
127, 349, 350, 354, 353
128, 350, 351, 355, 354
129, 351, 352, 356, 355
130, 352,  94,  95, 356
131, 100, 353,  99,  14
132, 353, 354,  98,  99
133, 354, 355,  97,  98
134, 355, 356,  96,  97
135, 356,  95,  13,  96
136,  15, 107, 357, 117
137, 107, 108, 358, 357
138, 108,   7,  84, 358
139, 117, 357, 359, 116
140, 357, 358, 360, 359
141, 358,  84,  83, 360
142, 116, 359, 361, 115
143, 359, 360, 362, 361
144, 360,  83,  82, 362
145, 115, 361, 363, 114
146, 361, 362, 364, 363
147, 362,  82,  81, 364
148, 114, 363, 365, 113
149, 363, 364, 366, 365
150, 364,  81,  80, 366
151, 113, 365, 367, 112
152, 365, 366, 368, 367
153, 366,  80,  79, 368
154, 112, 367, 369, 111
155, 367, 368, 370, 369
156, 368,  79,  78, 370
157, 111, 369, 110,  16
158, 369, 370, 109, 110
159, 370,  78,  10, 109
160,  12, 118, 371,  89
161, 118, 119, 372, 371
162, 119,  17, 120, 372
163,  89, 371, 373,  90
164, 371, 372, 374, 373
165, 372, 120, 121, 374
166,  90, 373, 375,  91
167, 373, 374, 376, 375
168, 374, 121, 122, 376
169,  91, 375, 377,  92
170, 375, 376, 378, 377
171, 376, 122, 123, 378
172,  92, 377, 379,  93
173, 377, 378, 380, 379
174, 378, 123, 124, 380
175,  93, 379, 381,  94
176, 379, 380, 382, 381
177, 380, 124, 125, 382
178,  94, 381, 383,  95
179, 381, 382, 384, 383
180, 382, 125, 126, 384
181,  95, 383, 128,  13
182, 383, 384, 127, 128
183, 384, 126,  18, 127
184,  19, 129, 385, 146
185, 129, 130, 386, 385
186, 130,   6, 131, 386
187, 146, 385, 387, 145
188, 385, 386, 388, 387
189, 386, 131, 132, 388
190, 145, 387, 389, 144
191, 387, 388, 390, 389
192, 388, 132, 133, 390
193, 144, 389, 391, 143
194, 389, 390, 392, 391
195, 390, 133, 134, 392
196, 143, 391, 393, 142
197, 391, 392, 394, 393
198, 392, 134, 135, 394
199, 142, 393, 395, 141
200, 393, 394, 396, 395
201, 394, 135, 136, 396
202, 141, 395, 397, 140
203, 395, 396, 398, 397
204, 396, 136, 137, 398
205, 140, 397, 139,  21
206, 397, 398, 138, 139
207, 398, 137,  20, 138
208,   2, 147, 399,  37
209, 147, 148, 400, 399
210, 148,  22, 149, 400
211,  37, 399, 401,  38
212, 399, 400, 402, 401
213, 400, 149, 150, 402
214,  38, 401, 403,  39
215, 401, 402, 404, 403
216, 402, 150, 151, 404
217,  39, 403, 405,  40
218, 403, 404, 406, 405
219, 404, 151, 152, 406
220,  40, 405, 407,  41
221, 405, 406, 408, 407
222, 406, 152, 153, 408
223,  41, 407, 409,  42
224, 407, 408, 410, 409
225, 408, 153, 154, 410
226,  42, 409, 411,  43
227, 409, 410, 412, 411
228, 410, 154, 155, 412
229,  43, 411, 157,   3
230, 411, 412, 156, 157
231, 412, 155,  23, 156
232,  17, 119, 413, 161
233, 119, 118, 414, 413
234, 118,  12, 158, 414
235, 161, 413, 415, 160
236, 413, 414, 416, 415
237, 414, 158, 159, 416
238, 160, 415, 107,  15
239, 415, 416, 108, 107
240, 416, 159,   7, 108
241,  19, 146, 417, 165
242, 146, 145, 418, 417
243, 145, 144, 419, 418
244, 144, 143, 420, 419
245, 143, 142, 421, 420
246, 142, 141, 422, 421
247, 141, 140, 423, 422
248, 140,  21, 162, 423
249, 165, 417, 424, 164
250, 417, 418, 425, 424
251, 418, 419, 426, 425
252, 419, 420, 427, 426
253, 420, 421, 428, 427
254, 421, 422, 429, 428
255, 422, 423, 430, 429
256, 423, 162, 163, 430
257, 164, 424, 120,  17
258, 424, 425, 121, 120
259, 425, 426, 122, 121
260, 426, 427, 123, 122
261, 427, 428, 124, 123
262, 428, 429, 125, 124
263, 429, 430, 126, 125
264, 430, 163,  18, 126
265,  23, 155, 431, 169
266, 155, 154, 432, 431
267, 154, 153, 433, 432
268, 153, 152, 434, 433
269, 152, 151, 435, 434
270, 151, 150, 436, 435
271, 150, 149, 437, 436
272, 149,  22, 166, 437
273, 169, 431, 438, 168
274, 431, 432, 439, 438
275, 432, 433, 440, 439
276, 433, 434, 441, 440
277, 434, 435, 442, 441
278, 435, 436, 443, 442
279, 436, 437, 444, 443
280, 437, 166, 167, 444
281, 168, 438, 111,  16
282, 438, 439, 112, 111
283, 439, 440, 113, 112
284, 440, 441, 114, 113
285, 441, 442, 115, 114
286, 442, 443, 116, 115
287, 443, 444, 117, 116
288, 444, 167,  15, 117
289,   9, 170, 445,  73
290, 170,  24, 171, 445
291,  73, 445, 446,  72
292, 445, 171, 172, 446
293,  72, 446, 447,  71
294, 446, 172, 173, 447
295,  71, 447, 448,  70
296, 447, 173, 174, 448
297,  70, 448, 449,  69
298, 448, 174, 175, 449
299,  69, 449, 450,  68
300, 449, 175, 176, 450
301,  68, 450, 451,  67
302, 450, 176, 177, 451
303,  67, 451, 452,   8
304, 451, 177, 178, 452
305,   8, 452, 453, 191
306, 452, 178, 179, 453
307, 191, 453, 454, 190
308, 453, 179, 180, 454
309, 190, 454, 455,  11
310, 454, 180, 181, 455
311,  11, 455, 456, 106
312, 455, 181, 182, 456
313, 106, 456, 457, 105
314, 456, 182, 183, 457
315, 105, 457, 458, 104
316, 457, 183, 184, 458
317, 104, 458, 459, 103
318, 458, 184, 185, 459
319, 103, 459, 460, 102
320, 459, 185, 186, 460
321, 102, 460, 461, 101
322, 460, 186, 187, 461
323, 101, 461, 462, 100
324, 461, 187, 188, 462
325, 100, 462, 189,  14
326, 462, 188,  25, 189
327,  10, 192, 463,  78
328, 192,  26, 193, 463
329,  78, 463, 464,  79
330, 463, 193, 194, 464
331,  79, 464, 465,  80
332, 464, 194, 195, 465
333,  80, 465, 466,  81
334, 465, 195, 196, 466
335,  81, 466, 467,  82
336, 466, 196, 197, 467
337,  82, 467, 468,  83
338, 467, 197, 198, 468
339,  83, 468, 469,  84
340, 468, 198, 199, 469
341,  84, 469, 470,   7
342, 469, 199, 200, 470
343,   7, 470, 471, 159
344, 470, 200, 201, 471
345, 159, 471, 472, 158
346, 471, 201, 202, 472
347, 158, 472, 473,  12
348, 472, 202, 203, 473
349,  12, 473, 474,  89
350, 473, 203, 204, 474
351,  89, 474, 475,  90
352, 474, 204, 205, 475
353,  90, 475, 476,  91
354, 475, 205, 206, 476
355,  91, 476, 477,  92
356, 476, 206, 207, 477
357,  92, 477, 478,  93
358, 477, 207, 208, 478
359,  93, 478, 479,  94
360, 478, 208, 209, 479
361,  94, 479, 480,  95
362, 479, 209, 210, 480
363,  95, 480, 211,  13
364, 480, 210,  27, 211
365,  12,  88, 481, 158
366,  88,  87, 482, 481
367,  87,  86, 483, 482
368,  86,  85, 484, 483
369,  85,  11, 190, 484
370, 158, 481, 485, 159
371, 481, 482, 486, 485
372, 482, 483, 487, 486
373, 483, 484, 488, 487
374, 484, 190, 191, 488
375, 159, 485,  63,   7
376, 485, 486,  64,  63
377, 486, 487,  65,  64
378, 487, 488,  66,  65
379, 488, 191,   8,  66
380,   3, 212, 489,  43
381, 212,  28, 213, 489
382,  43, 489, 490,  42
383, 489, 213, 214, 490
384,  42, 490, 491,  41
385, 490, 214, 215, 491
386,  41, 491, 492,  40
387, 491, 215, 216, 492
388,  40, 492, 493,  39
389, 492, 216, 217, 493
390,  39, 493, 494,  38
391, 493, 217, 218, 494
392,  38, 494, 495,  37
393, 494, 218, 219, 495
394,  37, 495, 496,   2
395, 495, 219, 220, 496
396,   2, 496, 497,  60
397, 496, 220, 221, 497
398,  60, 497, 498,  59
399, 497, 221, 222, 498
400,  59, 498, 499,   6
401, 498, 222, 223, 499
402,   6, 499, 500, 131
403, 499, 223, 224, 500
404, 131, 500, 501, 132
405, 500, 224, 225, 501
406, 132, 501, 502, 133
407, 501, 225, 226, 502
408, 133, 502, 503, 134
409, 502, 226, 227, 503
410, 134, 503, 504, 135
411, 503, 227, 228, 504
412, 135, 504, 505, 136
413, 504, 228, 229, 505
414, 136, 505, 506, 137
415, 505, 229, 230, 506
416, 137, 506, 231,  20
417, 506, 230,  29, 231
418,  22, 148, 507, 233
419, 148, 147, 508, 507
420, 147,   2,  60, 508
421, 233, 507, 509, 232
422, 507, 508, 510, 509
423, 508,  60,  59, 510
424, 232, 509, 129,  19
425, 509, 510, 130, 129
426, 510,  59,   6, 130
427,   4, 234, 511,  48
428, 234,  30, 235, 511
429,  48, 511, 512,  49
430, 511, 235, 236, 512
431,  49, 512, 513,  50
432, 512, 236, 237, 513
433,  50, 513, 514,  51
434, 513, 237, 238, 514
435,  51, 514, 515,  52
436, 514, 238, 239, 515
437,  52, 515, 516,  53
438, 515, 239, 240, 516
439,  53, 516, 517,  54
440, 516, 240, 241, 517
441,  54, 517, 518,   1
442, 517, 241, 242, 518
443,   1, 518, 519,  61
444, 518, 242, 243, 519
445,  61, 519, 520,  62
446, 519, 243, 244, 520
447,  62, 520, 521,   5
448, 520, 244, 245, 521
449,   5, 521, 522, 260
450, 521, 245, 246, 522
451, 260, 522, 523, 259
452, 522, 246, 247, 523
453, 259, 523, 524, 258
454, 523, 247, 248, 524
455, 258, 524, 525, 257
456, 524, 248, 249, 525
457, 257, 525, 526, 256
458, 525, 249, 250, 526
459, 256, 526, 527, 255
460, 526, 250, 251, 527
461, 255, 527, 528, 254
462, 527, 251, 252, 528
463, 254, 528, 253,  32
464, 528, 252,  31, 253
465,   6,  58, 529, 131
466,  58,  57, 530, 529
467,  57,  56, 531, 530
468,  56,  55, 532, 531
469,  55,   5, 260, 532
470, 131, 529, 533, 132
471, 529, 530, 534, 533
472, 530, 531, 535, 534
473, 531, 532, 536, 535
474, 532, 260, 259, 536
475, 132, 533, 537, 133
476, 533, 534, 538, 537
477, 534, 535, 539, 538
478, 535, 536, 540, 539
479, 536, 259, 258, 540
480, 133, 537, 541, 134
481, 537, 538, 542, 541
482, 538, 539, 543, 542
483, 539, 540, 544, 543
484, 540, 258, 257, 544
485, 134, 541, 545, 135
486, 541, 542, 546, 545
487, 542, 543, 547, 546
488, 543, 544, 548, 547
489, 544, 257, 256, 548
490, 135, 545, 549, 136
491, 545, 546, 550, 549
492, 546, 547, 551, 550
493, 547, 548, 552, 551
494, 548, 256, 255, 552
495, 136, 549, 553, 137
496, 549, 550, 554, 553
497, 550, 551, 555, 554
498, 551, 552, 556, 555
499, 552, 255, 254, 556
500, 137, 553, 264,  20
501, 553, 554, 263, 264
502, 554, 555, 262, 263
503, 555, 556, 261, 262
504, 556, 254,  32, 261
*Nset, nset=Part-3-2_Set-7
   1,   4,   5,  30,  31,  32,  48,  49,  50,  51,  52,  53,  54,  61,  62, 234
 235, 236, 237, 238, 239, 240, 241, 242, 243, 244, 245, 246, 247, 248, 249, 250
 251, 252, 253, 254, 255, 256, 257, 258, 259, 260, 511, 512, 513, 514, 515, 516
 517, 518, 519, 520, 521, 522, 523, 524, 525, 526, 527, 528
*Elset, elset=Part-3-2_Set-7, generate
 427,  464,    1
*Nset, nset=Part-3-2_Set-8
   8,   9,  11,  14,  24,  25,  67,  68,  69,  70,  71,  72,  73, 100, 101, 102
 103, 104, 105, 106, 170, 171, 172, 173, 174, 175, 176, 177, 178, 179, 180, 181
 182, 183, 184, 185, 186, 187, 188, 189, 190, 191, 445, 446, 447, 448, 449, 450
 451, 452, 453, 454, 455, 456, 457, 458, 459, 460, 461, 462
*Elset, elset=Part-3-2_Set-8, generate
 289,  326,    1
*Nset, nset=Part-3-2_Set-9
   1,   2,   3,   4,   5,   6,   7,   8,   9,  10,  11,  12,  13,  14,  15,  16
  17,  18,  19,  20,  21,  22,  23,  32,  33,  34,  35,  36,  37,  38,  39,  40
  41,  42,  43,  44,  45,  46,  47,  48,  49,  50,  51,  52,  53,  54,  55,  56
  57,  58,  59,  60,  61,  62,  63,  64,  65,  66,  67,  68,  69,  70,  71,  72
  73,  74,  75,  76,  77,  78,  79,  80,  81,  82,  83,  84,  85,  86,  87,  88
  89,  90,  91,  92,  93,  94,  95,  96,  97,  98,  99, 100, 101, 102, 103, 104
 105, 106, 107, 108, 109, 110, 111, 112, 113, 114, 115, 116, 117, 118, 119, 120
 121, 122, 123, 124, 125, 126, 127, 128, 129, 130, 131, 132, 133, 134, 135, 136
 137, 138, 139, 140, 141, 142, 143, 144, 145, 146, 147, 148, 149, 150, 151, 152
 153, 154, 155, 156, 157, 158, 159, 160, 161, 162, 163, 164, 165, 166, 167, 168
 169, 190, 191, 232, 233, 254, 255, 256, 257, 258, 259, 260, 261, 262, 263, 264
 265, 266, 267, 268, 269, 270, 271, 272, 273, 274, 275, 276, 277, 278, 279, 280
 281, 282, 283, 284, 285, 286, 287, 288, 289, 290, 291, 292, 293, 294, 295, 296
 297, 298, 299, 300, 301, 302, 303, 304, 305, 306, 307, 308, 309, 310, 311, 312
 313, 314, 315, 316, 317, 318, 319, 320, 321, 322, 323, 324, 325, 326, 327, 328
 329, 330, 331, 332, 333, 334, 335, 336, 337, 338, 339, 340, 341, 342, 343, 344
 345, 346, 347, 348, 349, 350, 351, 352, 353, 354, 355, 356, 357, 358, 359, 360
 361, 362, 363, 364, 365, 366, 367, 368, 369, 370, 371, 372, 373, 374, 375, 376
 377, 378, 379, 380, 381, 382, 383, 384, 385, 386, 387, 388, 389, 390, 391, 392
 393, 394, 395, 396, 397, 398, 399, 400, 401, 402, 403, 404, 405, 406, 407, 408
 409, 410, 411, 412, 413, 414, 415, 416, 417, 418, 419, 420, 421, 422, 423, 424
 425, 426, 427, 428, 429, 430, 431, 432, 433, 434, 435, 436, 437, 438, 439, 440
 441, 442, 443, 444, 481, 482, 483, 484, 485, 486, 487, 488, 507, 508, 509, 510
 529, 530, 531, 532, 533, 534, 535, 536, 537, 538, 539, 540, 541, 542, 543, 544
 545, 546, 547, 548, 549, 550, 551, 552, 553, 554, 555, 556
*Elset, elset=Part-3-2_Set-9
   1,   2,   3,   4,   5,   6,   7,   8,   9,  10,  11,  12,  13,  14,  15,  16
  17,  18,  19,  20,  21,  22,  23,  24,  25,  26,  27,  28,  29,  30,  31,  32
  33,  34,  35,  36,  37,  38,  39,  40,  41,  42,  43,  44,  45,  46,  47,  48
  49,  50,  51,  52,  53,  54,  55,  56,  57,  58,  59,  60,  61,  62,  63,  64
  65,  66,  67,  68,  69,  70,  71,  72,  73,  74,  75,  76,  77,  78,  79,  80
  81,  82,  83,  84,  85,  86,  87,  88,  89,  90,  91,  92,  93,  94,  95,  96
  97,  98,  99, 100, 101, 102, 103, 104, 105, 106, 107, 108, 109, 110, 111, 112
 113, 114, 115, 116, 117, 118, 119, 120, 121, 122, 123, 124, 125, 126, 127, 128
 129, 130, 131, 132, 133, 134, 135, 136, 137, 138, 139, 140, 141, 142, 143, 144
 145, 146, 147, 148, 149, 150, 151, 152, 153, 154, 155, 156, 157, 158, 159, 160
 161, 162, 163, 164, 165, 166, 167, 168, 169, 170, 171, 172, 173, 174, 175, 176
 177, 178, 179, 180, 181, 182, 183, 184, 185, 186, 187, 188, 189, 190, 191, 192
 193, 194, 195, 196, 197, 198, 199, 200, 201, 202, 203, 204, 205, 206, 207, 208
 209, 210, 211, 212, 213, 214, 215, 216, 217, 218, 219, 220, 221, 222, 223, 224
 225, 226, 227, 228, 229, 230, 231, 232, 233, 234, 235, 236, 237, 238, 239, 240
 241, 242, 243, 244, 245, 246, 247, 248, 249, 250, 251, 252, 253, 254, 255, 256
 257, 258, 259, 260, 261, 262, 263, 264, 265, 266, 267, 268, 269, 270, 271, 272
 273, 274, 275, 276, 277, 278, 279, 280, 281, 282, 283, 284, 285, 286, 287, 288
 365, 366, 367, 368, 369, 370, 371, 372, 373, 374, 375, 376, 377, 378, 379, 418
 419, 420, 421, 422, 423, 424, 425, 426, 465, 466, 467, 468, 469, 470, 471, 472
 473, 474, 475, 476, 477, 478, 479, 480, 481, 482, 483, 484, 485, 486, 487, 488
 489, 490, 491, 492, 493, 494, 495, 496, 497, 498, 499, 500, 501, 502, 503, 504
*Nset, nset=Part-3-2_Set-10
   2,   3,   6,   7,  10,  12,  13,  20,  26,  27,  28,  29,  37,  38,  39,  40
  41,  42,  43,  59,  60,  78,  79,  80,  81,  82,  83,  84,  89,  90,  91,  92
  93,  94,  95, 131, 132, 133, 134, 135, 136, 137, 158, 159, 192, 193, 194, 195
 196, 197, 198, 199, 200, 201, 202, 203, 204, 205, 206, 207, 208, 209, 210, 211
 212, 213, 214, 215, 216, 217, 218, 219, 220, 221, 222, 223, 224, 225, 226, 227
 228, 229, 230, 231, 463, 464, 465, 466, 467, 468, 469, 470, 471, 472, 473, 474
 475, 476, 477, 478, 479, 480, 489, 490, 491, 492, 493, 494, 495, 496, 497, 498
 499, 500, 501, 502, 503, 504, 505, 506
*Elset, elset=Part-3-2_Set-10
 327, 328, 329, 330, 331, 332, 333, 334, 335, 336, 337, 338, 339, 340, 341, 342
 343, 344, 345, 346, 347, 348, 349, 350, 351, 352, 353, 354, 355, 356, 357, 358
 359, 360, 361, 362, 363, 364, 380, 381, 382, 383, 384, 385, 386, 387, 388, 389
 390, 391, 392, 393, 394, 395, 396, 397, 398, 399, 400, 401, 402, 403, 404, 405
 406, 407, 408, 409, 410, 411, 412, 413, 414, 415, 416, 417
** Section: Section-4mm
*Shell Section, elset=Part-3-2_Set-9, material=steel-NEW, offset=SNEG
4.5, 5
** Section: Section-6mm
*Shell Section, elset=Part-3-2_Set-8, material=steel-NEW, offset=SNEG
5.5, 5
** Section: Section-4mm
*Shell Section, elset=Part-3-2_Set-10, material=steel-NEW
4.5, 5
** Section: Section-6mm
*Shell Section, elset=Part-3-2_Set-7, material=steel-NEW, offset=SPOS
5.5, 5
*System
*Node
    557,           0.,          50.,           0.
*Nset, nset=Set-1
  13,  14,  18,  20,  21,  25,  27,  29,  31,  32,  96,  97,  98,  99, 127, 128
 138, 139, 162, 163, 189, 211, 231, 253, 261, 262, 263, 264
*Nset, nset=Set-2
   3,   4,   9,  10,  16,  23,  24,  26,  28,  30,  44,  45,  46,  47,  74,  75
  76,  77, 109, 110, 156, 157, 168, 169, 170, 192, 212, 234
*Nset, nset=_PickedSet37
557,
*Nset, nset=_PickedSet42
557,
*Surface, type=NODE, name=Set-2_CNS_
Set-2, 1.
** Constraint: Constraint-1
*Coupling, constraint name=Constraint-1, ref node=_PickedSet37, surface=Set-2_CNS_
*Kinematic
*Amplitude, name=Amp-1
             0.,              0.,              1.,              1.
** 
** MATERIALS
** 
*Material, name=steel-NEW
*Density
 7.89e-09,
*Elastic
188920., 0.3
*Plastic
  268.48,         0.
 274.598, 0.00133179
 280.251, 0.00194973
 281.621,  0.0120713
 308.124,  0.0192755
 328.118,  0.0241691
 346.751,  0.0295511
 364.322,  0.0354144
 381.909,  0.0423184
 400.769,  0.0511637
 418.352,  0.0610219
  433.67,  0.0714987
** ----------------------------------------------------------------
** 
** STEP: Step-1
** 
*IMPERFECTION, file=Job-44, step=1
1, 5,
*Step, name=Step-1, nlgeom=YES
*Static
1., 1., 1e-05, 1.
** 
** BOUNDARY CONDITIONS
** 
** Name: BC-1 Type: Symmetry/Antisymmetry/Encastre
*Boundary
Set-1, ENCASTRE
** Name: BC-2 Type: Displacement/Rotation
*Boundary, amplitude=Amp-1
_PickedSet42, 1, 1
_PickedSet42, 2, 2
_PickedSet42, 3, 3, -2.
_PickedSet42, 4, 4
_PickedSet42, 5, 5
_PickedSet42, 6, 6
** 
** OUTPUT REQUESTS
** 
*Restart, write, frequency=0
** 
** FIELD OUTPUT: F-Output-1
** 
*Output, field, variable=PRESELECT, number interval=100
** 
** HISTORY OUTPUT: H-Output-1
** 
*Output, history, variable=PRESELECT
*End Step
