*Heading
IGAforCAD multipatch Nitsche buckling alignment reference
*Node
1, 0, 0, 0
2, 2.5, 0, 0
3, 5, 0, 0
4, 7.5, 0, 0
5, 10, 0, 0
6, 12.5, 0, 0
7, 15, 0, 0
8, 17.5, 0, 0
9, 20, 0, 0
10, 22.5, 0, 0
11, 25, 0, 0
12, 27.5, 0, 0
13, 30, 0, 0
14, 32.5, 0, 0
15, 35, 0, 0
16, 37.5, 0, 0
17, 40, 0, 0
18, 42.5, 0, 0
19, 45, 0, 0
20, 47.5, 0, 0
21, 50, 0, 0
22, 52.5, 0, 0
23, 55, 0, 0
24, 57.5, 0, 0
25, 60, 0, 0
26, 62.5, 0, 0
27, 65, 0, 0
28, 67.5, 0, 0
29, 70, 0, 0
30, 72.5, 0, 0
31, 75, 0, 0
32, 77.5, 0, 0
33, 80, 0, 0
34, 82.5, 0, 0
35, 85, 0, 0
36, 87.5, 0, 0
37, 90, 0, 0
38, 92.5, 0, 0
39, 95, 0, 0
40, 97.5, 0, 0
41, 100, 0, 0
42, 102.5, 0, 0
43, 105, 0, 0
44, 107.5, 0, 0
45, 110, 0, 0
46, 112.5, 0, 0
47, 115, 0, 0
48, 117.5, 0, 0
49, 120, 0, 0
50, 122.5, 0, 0
51, 125, 0, 0
52, 127.5, 0, 0
53, 130, 0, 0
54, 132.5, 0, 0
55, 135, 0, 0
56, 137.5, 0, 0
57, 140, 0, 0
58, 142.5, 0, 0
59, 145, 0, 0
60, 147.5, 0, 0
61, 150, 0, 0
62, 152.5, 0, 0
63, 155, 0, 0
64, 157.5, 0, 0
65, 160, 0, 0
66, 162.5, 0, 0
67, 165, 0, 0
68, 167.5, 0, 0
69, 170, 0, 0
70, 172.5, 0, 0
71, 175, 0, 0
72, 177.5, 0, 0
73, 180, 0, 0
74, 182.5, 0, 0
75, 185, 0, 0
76, 187.5, 0, 0
77, 190, 0, 0
78, 192.5, 0, 0
79, 195, 0, 0
80, 197.5, 0, 0
81, 200, 0, 0
82, 0, 2.5, 0
83, 2.5, 2.5, 0.00096281250000000023
84, 5, 2.5, 0.0019012500000000004
85, 7.5, 2.5, 0.0028153124999999997
86, 10, 2.5, 0.0037050000000000008
87, 12.5, 2.5, 0.0045703125000000006
88, 15, 2.5, 0.0054112500000000003
89, 17.5, 2.5, 0.006227812499999999
90, 20, 2.5, 0.0070200000000000019
91, 22.5, 2.5, 0.0077878124999999996
92, 25, 2.5, 0.0085312500000000006
93, 27.5, 2.5, 0.0092503125000000033
94, 30, 2.5, 0.0099450000000000007
95, 32.5, 2.5, 0.010615312500000001
96, 35, 2.5, 0.011261249999999997
97, 37.5, 2.5, 0.011882812500000001
98, 40, 2.5, 0.012480000000000003
99, 42.5, 2.5, 0.0130528125
100, 45, 2.5, 0.013601250000000002
101, 47.5, 2.5, 0.014125312500000001
102, 50, 2.5, 0.014625000000000003
103, 52.5, 2.5, 0.015100312500000001
104, 55, 2.5, 0.015551250000000003
105, 57.5, 2.5, 0.015977812499999997
106, 60, 2.5, 0.016379999999999999
107, 62.5, 2.5, 0.0167578125
108, 65, 2.5, 0.017111250000000001
109, 67.5, 2.5, 0.017440312499999999
110, 70, 2.5, 0.017745
111, 72.5, 2.5, 0.018025312500000001
112, 75, 2.5, 0.018281250000000002
113, 77.5, 2.5, 0.018512812500000003
114, 80, 2.5, 0.018720000000000004
115, 82.5, 2.5, 0.018902812500000001
116, 85, 2.5, 0.019061250000000002
117, 87.5, 2.5, 0.019195312500000002
118, 90, 2.5, 0.019305000000000006
119, 92.5, 2.5, 0.019390312500000003
120, 95, 2.5, 0.019451250000000003
121, 97.5, 2.5, 0.0194878125
122, 100, 2.5, 0.019500000000000003
123, 102.5, 2.5, 0.0194878125
124, 105, 2.5, 0.019451250000000003
125, 107.5, 2.5, 0.019390312500000003
126, 110, 2.5, 0.019305000000000003
127, 112.5, 2.5, 0.019195312499999999
128, 115, 2.5, 0.019061250000000002
129, 117.5, 2.5, 0.018902812500000001
130, 120, 2.5, 0.018720000000000001
131, 122.5, 2.5, 0.0185128125
132, 125, 2.5, 0.018281250000000002
133, 127.5, 2.5, 0.018025312500000005
134, 130, 2.5, 0.017745
135, 132.5, 2.5, 0.017440312500000003
136, 135, 2.5, 0.017111249999999998
137, 137.5, 2.5, 0.0167578125
138, 140, 2.5, 0.016380000000000002
139, 142.5, 2.5, 0.015977812499999997
140, 145, 2.5, 0.015551250000000003
141, 147.5, 2.5, 0.015100312499999999
142, 150, 2.5, 0.014625000000000003
143, 152.5, 2.5, 0.014125312500000004
144, 155, 2.5, 0.013601250000000002
145, 157.5, 2.5, 0.013052812500000004
146, 160, 2.5, 0.01248
147, 162.5, 2.5, 0.011882812500000001
148, 165, 2.5, 0.011261250000000004
149, 167.5, 2.5, 0.0106153125
150, 170, 2.5, 0.0099450000000000024
151, 172.5, 2.5, 0.0092503124999999981
152, 175, 2.5, 0.0085312500000000006
153, 177.5, 2.5, 0.0077878125000000031
154, 180, 2.5, 0.0070199999999999993
155, 182.5, 2.5, 0.0062278125000000016
156, 185, 2.5, 0.0054112499999999977
157, 187.5, 2.5, 0.0045703125000000006
158, 190, 2.5, 0.0037050000000000034
159, 192.5, 2.5, 0.0028153124999999984
160, 195, 2.5, 0.0019012500000000017
161, 197.5, 2.5, 0.00096281249999999666
162, 200, 2.5, 0
163, 0, 5, 0
164, 2.5, 5, 0.0018762500000000005
165, 5, 5, 0.0037050000000000004
166, 7.5, 5, 0.0054862499999999998
167, 10, 5, 0.0072200000000000016
168, 12.5, 5, 0.008906250000000001
169, 15, 5, 0.010545000000000001
170, 17.5, 5, 0.012136249999999998
171, 20, 5, 0.013680000000000005
172, 22.5, 5, 0.015176249999999999
173, 25, 5, 0.016625000000000001
174, 27.5, 5, 0.018026250000000004
175, 30, 5, 0.019380000000000001
176, 32.5, 5, 0.020686250000000003
177, 35, 5, 0.021944999999999996
178, 37.5, 5, 0.023156250000000003
179, 40, 5, 0.024320000000000008
180, 42.5, 5, 0.025436250000000001
181, 45, 5, 0.026505000000000004
182, 47.5, 5, 0.027526249999999999
183, 50, 5, 0.028500000000000004
184, 52.5, 5, 0.029426250000000001
185, 55, 5, 0.030305000000000002
186, 57.5, 5, 0.031136249999999997
187, 60, 5, 0.031919999999999997
188, 62.5, 5, 0.032656249999999998
189, 65, 5, 0.033345000000000007
190, 67.5, 5, 0.033986250000000003
191, 70, 5, 0.03458
192, 72.5, 5, 0.035126249999999998
193, 75, 5, 0.035625000000000004
194, 77.5, 5, 0.036076250000000004
195, 80, 5, 0.036480000000000005
196, 82.5, 5, 0.036836250000000001
197, 85, 5, 0.037144999999999997
198, 87.5, 5, 0.037406250000000002
199, 90, 5, 0.037620000000000008
200, 92.5, 5, 0.03778625
201, 95, 5, 0.037905000000000001
202, 97.5, 5, 0.037976250000000003
203, 100, 5, 0.038000000000000006
204, 102.5, 5, 0.037976250000000003
205, 105, 5, 0.037905000000000001
206, 107.5, 5, 0.03778625
207, 110, 5, 0.037620000000000001
208, 112.5, 5, 0.037406249999999995
209, 115, 5, 0.037144999999999997
210, 117.5, 5, 0.036836250000000001
211, 120, 5, 0.036479999999999999
212, 122.5, 5, 0.036076249999999997
213, 125, 5, 0.035625000000000004
214, 127.5, 5, 0.035126250000000005
215, 130, 5, 0.03458
216, 132.5, 5, 0.03398625000000001
217, 135, 5, 0.033345
218, 137.5, 5, 0.032656249999999998
219, 140, 5, 0.031920000000000004
220, 142.5, 5, 0.031136249999999997
221, 145, 5, 0.030305000000000002
222, 147.5, 5, 0.029426249999999998
223, 150, 5, 0.028500000000000004
224, 152.5, 5, 0.027526250000000006
225, 155, 5, 0.026505000000000004
226, 157.5, 5, 0.025436250000000004
227, 160, 5, 0.024320000000000001
228, 162.5, 5, 0.023156250000000003
229, 165, 5, 0.02194500000000001
230, 167.5, 5, 0.02068625
231, 170, 5, 0.019380000000000005
232, 172.5, 5, 0.018026249999999994
233, 175, 5, 0.016625000000000001
234, 177.5, 5, 0.015176250000000006
235, 180, 5, 0.013679999999999999
236, 182.5, 5, 0.012136250000000003
237, 185, 5, 0.010544999999999995
238, 187.5, 5, 0.008906250000000001
239, 190, 5, 0.0072200000000000059
240, 192.5, 5, 0.0054862499999999972
241, 195, 5, 0.0037050000000000034
242, 197.5, 5, 0.0018762499999999936
243, 200, 5, 0
244, 0, 7.5, 0
245, 2.5, 7.5, 0.0027403125000000006
246, 5, 7.5, 0.0054112500000000011
247, 7.5, 7.5, 0.0080128124999999991
248, 10, 7.5, 0.010545000000000002
249, 12.5, 7.5, 0.013007812499999999
250, 15, 7.5, 0.015401249999999998
251, 17.5, 7.5, 0.017725312499999996
252, 20, 7.5, 0.019980000000000005
253, 22.5, 7.5, 0.022165312500000003
254, 25, 7.5, 0.024281250000000004
255, 27.5, 7.5, 0.026327812500000002
256, 30, 7.5, 0.028304999999999997
257, 32.5, 7.5, 0.030212812500000005
258, 35, 7.5, 0.032051249999999996
259, 37.5, 7.5, 0.033820312500000005
260, 40, 7.5, 0.03552000000000001
261, 42.5, 7.5, 0.037150312499999998
262, 45, 7.5, 0.03871125000000001
263, 47.5, 7.5, 0.040202812500000004
264, 50, 7.5, 0.041625000000000009
265, 52.5, 7.5, 0.042977812500000004
266, 55, 7.5, 0.044261250000000002
267, 57.5, 7.5, 0.045475312500000004
268, 60, 7.5, 0.046619999999999995
269, 62.5, 7.5, 0.047695312499999996
270, 65, 7.5, 0.048701250000000001
271, 67.5, 7.5, 0.049637812500000003
272, 70, 7.5, 0.050505000000000001
273, 72.5, 7.5, 0.051302812499999996
274, 75, 7.5, 0.052031250000000008
275, 77.5, 7.5, 0.052690312500000017
276, 80, 7.5, 0.053280000000000008
277, 82.5, 7.5, 0.05380031250000001
278, 85, 7.5, 0.054251250000000001
279, 87.5, 7.5, 0.054632812500000009
280, 90, 7.5, 0.054945000000000008
281, 92.5, 7.5, 0.055187812500000009
282, 95, 7.5, 0.055361250000000001
283, 97.5, 7.5, 0.055465312499999996
284, 100, 7.5, 0.055500000000000001
285, 102.5, 7.5, 0.055465312499999996
286, 105, 7.5, 0.055361250000000001
287, 107.5, 7.5, 0.055187812499999996
288, 110, 7.5, 0.054945000000000001
289, 112.5, 7.5, 0.054632812500000003
290, 115, 7.5, 0.054251250000000001
291, 117.5, 7.5, 0.053800312499999996
292, 120, 7.5, 0.053280000000000001
293, 122.5, 7.5, 0.052690312499999996
294, 125, 7.5, 0.052031249999999994
295, 127.5, 7.5, 0.051302812500000017
296, 130, 7.5, 0.050505000000000001
297, 132.5, 7.5, 0.04963781250000001
298, 135, 7.5, 0.048701250000000001
299, 137.5, 7.5, 0.047695312499999996
300, 140, 7.5, 0.046620000000000002
301, 142.5, 7.5, 0.045475312500000004
302, 145, 7.5, 0.044261250000000002
303, 147.5, 7.5, 0.042977812499999997
304, 150, 7.5, 0.041625000000000009
305, 152.5, 7.5, 0.040202812500000011
306, 155, 7.5, 0.03871125000000001
307, 157.5, 7.5, 0.037150312500000005
308, 160, 7.5, 0.035519999999999996
309, 162.5, 7.5, 0.033820312500000005
310, 165, 7.5, 0.03205125000000001
311, 167.5, 7.5, 0.030212812499999998
312, 170, 7.5, 0.028305000000000007
313, 172.5, 7.5, 0.026327812499999992
314, 175, 7.5, 0.024281250000000004
315, 177.5, 7.5, 0.02216531250000001
316, 180, 7.5, 0.019979999999999998
317, 182.5, 7.5, 0.017725312500000003
318, 185, 7.5, 0.015401249999999993
319, 187.5, 7.5, 0.013007812499999999
320, 190, 7.5, 0.010545000000000009
321, 192.5, 7.5, 0.0080128124999999956
322, 195, 7.5, 0.0054112500000000055
323, 197.5, 7.5, 0.0027403124999999906
324, 200, 7.5, 0
325, 0, 10, 0
326, 2.5, 10, 0.0035550000000000013
327, 5, 10, 0.0070200000000000011
328, 7.5, 10, 0.010395
329, 10, 10, 0.013680000000000003
330, 12.5, 10, 0.016875000000000005
331, 15, 10, 0.019980000000000001
332, 17.5, 10, 0.022994999999999998
333, 20, 10, 0.025920000000000009
334, 22.5, 10, 0.028754999999999999
335, 25, 10, 0.031500000000000007
336, 27.5, 10, 0.034155000000000012
337, 30, 10, 0.036720000000000003
338, 32.5, 10, 0.039195000000000008
339, 35, 10, 0.041579999999999992
340, 37.5, 10, 0.043875000000000011
341, 40, 10, 0.046080000000000017
342, 42.5, 10, 0.048195000000000002
343, 45, 10, 0.050220000000000008
344, 47.5, 10, 0.052155
345, 50, 10, 0.054000000000000013
346, 52.5, 10, 0.055755000000000006
347, 55, 10, 0.057420000000000013
348, 57.5, 10, 0.058994999999999999
349, 60, 10, 0.060479999999999999
350, 62.5, 10, 0.061875000000000006
351, 65, 10, 0.063180000000000014
352, 67.5, 10, 0.064395000000000008
353, 70, 10, 0.065520000000000009
354, 72.5, 10, 0.066555000000000003
355, 75, 10, 0.067500000000000018
356, 77.5, 10, 0.068355000000000013
357, 80, 10, 0.069120000000000015
358, 82.5, 10, 0.06979500000000001
359, 85, 10, 0.070380000000000012
360, 87.5, 10, 0.070875000000000021
361, 90, 10, 0.071280000000000024
362, 92.5, 10, 0.071595000000000006
363, 95, 10, 0.071820000000000009
364, 97.5, 10, 0.071955000000000005
365, 100, 10, 0.072000000000000022
366, 102.5, 10, 0.071955000000000005
367, 105, 10, 0.071820000000000009
368, 107.5, 10, 0.071595000000000006
369, 110, 10, 0.07128000000000001
370, 112.5, 10, 0.070875000000000007
371, 115, 10, 0.070380000000000012
372, 117.5, 10, 0.06979500000000001
373, 120, 10, 0.069120000000000015
374, 122.5, 10, 0.068354999999999999
375, 125, 10, 0.067500000000000018
376, 127.5, 10, 0.066555000000000017
377, 130, 10, 0.065520000000000009
378, 132.5, 10, 0.064395000000000022
379, 135, 10, 0.06318
380, 137.5, 10, 0.061875000000000006
381, 140, 10, 0.060480000000000013
382, 142.5, 10, 0.058994999999999999
383, 145, 10, 0.057420000000000013
384, 147.5, 10, 0.055754999999999999
385, 150, 10, 0.054000000000000013
386, 152.5, 10, 0.052155000000000014
387, 155, 10, 0.050220000000000008
388, 157.5, 10, 0.048195000000000016
389, 160, 10, 0.046080000000000003
390, 162.5, 10, 0.043875000000000011
391, 165, 10, 0.04158000000000002
392, 167.5, 10, 0.039195000000000001
393, 170, 10, 0.03672000000000001
394, 172.5, 10, 0.034154999999999991
395, 175, 10, 0.031500000000000007
396, 177.5, 10, 0.028755000000000013
397, 180, 10, 0.025919999999999999
398, 182.5, 10, 0.022995000000000005
399, 185, 10, 0.019979999999999991
400, 187.5, 10, 0.016875000000000005
401, 190, 10, 0.013680000000000013
402, 192.5, 10, 0.010394999999999995
403, 195, 10, 0.0070200000000000071
404, 197.5, 10, 0.0035549999999999879
405, 200, 10, 0
406, 0, 12.5, 0
407, 2.5, 12.5, 0.0043203125000000012
408, 5, 12.5, 0.0085312500000000006
409, 7.5, 12.5, 0.0126328125
410, 10, 12.5, 0.016625000000000001
411, 12.5, 12.5, 0.0205078125
412, 15, 12.5, 0.024281250000000001
413, 17.5, 12.5, 0.027945312499999993
414, 20, 12.5, 0.031500000000000007
415, 22.5, 12.5, 0.034945312499999999
416, 25, 12.5, 0.038281250000000003
417, 27.5, 12.5, 0.041507812500000005
418, 30, 12.5, 0.044624999999999998
419, 32.5, 12.5, 0.047632812500000003
420, 35, 12.5, 0.050531249999999993
421, 37.5, 12.5, 0.053320312500000008
422, 40, 12.5, 0.056000000000000015
423, 42.5, 12.5, 0.058570312499999999
424, 45, 12.5, 0.061031250000000009
425, 47.5, 12.5, 0.063382812499999996
426, 50, 12.5, 0.065625000000000017
427, 52.5, 12.5, 0.0677578125
428, 55, 12.5, 0.069781250000000003
429, 57.5, 12.5, 0.071695312499999997
430, 60, 12.5, 0.073499999999999996
431, 62.5, 12.5, 0.0751953125
432, 65, 12.5, 0.076781250000000009
433, 67.5, 12.5, 0.078257812499999996
434, 70, 12.5, 0.079625000000000001
435, 72.5, 12.5, 0.080882812499999998
436, 75, 12.5, 0.082031250000000014
437, 77.5, 12.5, 0.083070312500000021
438, 80, 12.5, 0.084000000000000019
439, 82.5, 12.5, 0.084820312500000009
440, 85, 12.5, 0.085531250000000003
441, 87.5, 12.5, 0.086132812500000017
442, 90, 12.5, 0.086625000000000021
443, 92.5, 12.5, 0.087007812500000004
444, 95, 12.5, 0.087281250000000005
445, 97.5, 12.5, 0.087445312499999997
446, 100, 12.5, 0.087500000000000008
447, 102.5, 12.5, 0.087445312499999997
448, 105, 12.5, 0.087281250000000005
449, 107.5, 12.5, 0.087007812500000004
450, 110, 12.5, 0.086625000000000008
451, 112.5, 12.5, 0.086132812500000003
452, 115, 12.5, 0.085531250000000003
453, 117.5, 12.5, 0.084820312499999995
454, 120, 12.5, 0.084000000000000005
455, 122.5, 12.5, 0.083070312499999993
456, 125, 12.5, 0.08203125
457, 127.5, 12.5, 0.080882812500000012
458, 130, 12.5, 0.079625000000000001
459, 132.5, 12.5, 0.07825781250000001
460, 135, 12.5, 0.076781249999999995
461, 137.5, 12.5, 0.0751953125
462, 140, 12.5, 0.07350000000000001
463, 142.5, 12.5, 0.071695312499999997
464, 145, 12.5, 0.069781250000000003
465, 147.5, 12.5, 0.067757812499999986
466, 150, 12.5, 0.065625000000000017
467, 152.5, 12.5, 0.06338281250000001
468, 155, 12.5, 0.061031250000000009
469, 157.5, 12.5, 0.058570312500000013
470, 160, 12.5, 0.056000000000000001
471, 162.5, 12.5, 0.053320312500000008
472, 165, 12.5, 0.050531250000000014
473, 167.5, 12.5, 0.047632812499999996
474, 170, 12.5, 0.044625000000000012
475, 172.5, 12.5, 0.041507812499999991
476, 175, 12.5, 0.038281250000000003
477, 177.5, 12.5, 0.034945312500000013
478, 180, 12.5, 0.0315
479, 182.5, 12.5, 0.027945312500000007
480, 185, 12.5, 0.024281249999999987
481, 187.5, 12.5, 0.0205078125
482, 190, 12.5, 0.016625000000000015
483, 192.5, 12.5, 0.012632812499999993
484, 195, 12.5, 0.0085312500000000076
485, 197.5, 12.5, 0.0043203124999999848
486, 200, 12.5, 0
487, 0, 15, 0
488, 2.5, 15, 0.0050362499999999999
489, 5, 15, 0.0099450000000000007
490, 7.5, 15, 0.014726249999999996
491, 10, 15, 0.019380000000000005
492, 12.5, 15, 0.023906249999999997
493, 15, 15, 0.028304999999999997
494, 17.5, 15, 0.032576249999999994
495, 20, 15, 0.03672000000000001
496, 22.5, 15, 0.040736250000000002
497, 25, 15, 0.044625000000000005
498, 27.5, 15, 0.048386249999999999
499, 30, 15, 0.05201999999999999
500, 32.5, 15, 0.055526250000000006
501, 35, 15, 0.058904999999999985
502, 37.5, 15, 0.062156250000000003
503, 40, 15, 0.065280000000000019
504, 42.5, 15, 0.068276249999999997
505, 45, 15, 0.071145000000000014
506, 47.5, 15, 0.073886250000000001
507, 50, 15, 0.076500000000000012
508, 52.5, 15, 0.078986250000000008
509, 55, 15, 0.081344999999999987
510, 57.5, 15, 0.083576249999999991
511, 60, 15, 0.085679999999999992
512, 62.5, 15, 0.087656249999999991
513, 65, 15, 0.089505000000000001
514, 67.5, 15, 0.091226249999999995
515, 70, 15, 0.092819999999999986
516, 72.5, 15, 0.094286249999999988
517, 75, 15, 0.095625000000000016
518, 77.5, 15, 0.096836250000000026
519, 80, 15, 0.097920000000000007
520, 82.5, 15, 0.098876250000000013
521, 85, 15, 0.099705000000000002
522, 87.5, 15, 0.10040625
523, 90, 15, 0.10098000000000001
524, 92.5, 15, 0.10142625000000001
525, 95, 15, 0.101745
526, 97.5, 15, 0.10193624999999999
527, 100, 15, 0.10199999999999999
528, 102.5, 15, 0.10193624999999999
529, 105, 15, 0.101745
530, 107.5, 15, 0.10142624999999998
531, 110, 15, 0.10098
532, 112.5, 15, 0.10040624999999999
533, 115, 15, 0.099705000000000002
534, 117.5, 15, 0.098876249999999985
535, 120, 15, 0.097919999999999993
536, 122.5, 15, 0.096836249999999985
537, 125, 15, 0.095624999999999988
538, 127.5, 15, 0.094286250000000016
539, 130, 15, 0.092819999999999986
540, 132.5, 15, 0.091226250000000009
541, 135, 15, 0.089504999999999987
542, 137.5, 15, 0.087656249999999991
543, 140, 15, 0.085679999999999992
544, 142.5, 15, 0.083576249999999991
545, 145, 15, 0.081344999999999987
546, 147.5, 15, 0.078986249999999994
547, 150, 15, 0.076500000000000012
548, 152.5, 15, 0.073886250000000014
549, 155, 15, 0.071145000000000014
550, 157.5, 15, 0.068276250000000011
551, 160, 15, 0.065279999999999991
552, 162.5, 15, 0.062156250000000003
553, 165, 15, 0.058905000000000013
554, 167.5, 15, 0.055526249999999992
555, 170, 15, 0.052020000000000011
556, 172.5, 15, 0.048386249999999985
557, 175, 15, 0.044625000000000005
558, 177.5, 15, 0.040736250000000016
559, 180, 15, 0.036719999999999996
560, 182.5, 15, 0.032576250000000001
561, 185, 15, 0.028304999999999983
562, 187.5, 15, 0.023906249999999997
563, 190, 15, 0.019380000000000015
564, 192.5, 15, 0.014726249999999991
565, 195, 15, 0.0099450000000000094
566, 197.5, 15, 0.0050362499999999817
567, 200, 15, 0
568, 0, 17.5, 0
569, 2.5, 17.5, 0.0057028125000000004
570, 5, 17.5, 0.011261250000000002
571, 7.5, 17.5, 0.016675312499999997
572, 10, 17.5, 0.021944999999999999
573, 12.5, 17.5, 0.027070312499999995
574, 15, 17.5, 0.032051249999999996
575, 17.5, 17.5, 0.036887812499999992
576, 20, 17.5, 0.041580000000000013
577, 22.5, 17.5, 0.046127812499999997
578, 25, 17.5, 0.05053125
579, 27.5, 17.5, 0.054790312499999994
580, 30, 17.5, 0.058904999999999992
581, 32.5, 17.5, 0.062875312500000002
582, 35, 17.5, 0.066701249999999976
583, 37.5, 17.5, 0.070382812500000003
584, 40, 17.5, 0.073920000000000013
585, 42.5, 17.5, 0.077312812499999994
586, 45, 17.5, 0.080561250000000001
587, 47.5, 17.5, 0.083665312499999991
588, 50, 17.5, 0.086625000000000008
589, 52.5, 17.5, 0.089440312500000008
590, 55, 17.5, 0.092111249999999992
591, 57.5, 17.5, 0.094637812499999974
592, 60, 17.5, 0.097019999999999981
593, 62.5, 17.5, 0.099257812499999987
594, 65, 17.5, 0.10135124999999999
595, 67.5, 17.5, 0.10330031249999999
596, 70, 17.5, 0.10510499999999998
597, 72.5, 17.5, 0.10676531249999999
598, 75, 17.5, 0.10828125
599, 77.5, 17.5, 0.1096528125
600, 80, 17.5, 0.11088000000000001
601, 82.5, 17.5, 0.11196281250000001
602, 85, 17.5, 0.11290124999999999
603, 87.5, 17.5, 0.11369531249999999
604, 90, 17.5, 0.11434500000000002
605, 92.5, 17.5, 0.11485031250000001
606, 95, 17.5, 0.11521124999999999
607, 97.5, 17.5, 0.11542781249999999
608, 100, 17.5, 0.11549999999999998
609, 102.5, 17.5, 0.11542781249999999
610, 105, 17.5, 0.11521124999999999
611, 107.5, 17.5, 0.11485031249999998
612, 110, 17.5, 0.11434499999999999
613, 112.5, 17.5, 0.11369531249999998
614, 115, 17.5, 0.11290124999999999
615, 117.5, 17.5, 0.11196281249999998
616, 120, 17.5, 0.11087999999999999
617, 122.5, 17.5, 0.10965281249999999
618, 125, 17.5, 0.10828124999999998
619, 127.5, 17.5, 0.1067653125
620, 130, 17.5, 0.10510499999999998
621, 132.5, 17.5, 0.10330031249999999
622, 135, 17.5, 0.10135124999999999
623, 137.5, 17.5, 0.099257812499999987
624, 140, 17.5, 0.097019999999999995
625, 142.5, 17.5, 0.094637812499999974
626, 145, 17.5, 0.092111249999999992
627, 147.5, 17.5, 0.08944031249999998
628, 150, 17.5, 0.086625000000000008
629, 152.5, 17.5, 0.083665312500000005
630, 155, 17.5, 0.080561250000000001
631, 157.5, 17.5, 0.077312812499999994
632, 160, 17.5, 0.07392
633, 162.5, 17.5, 0.070382812500000003
634, 165, 17.5, 0.066701250000000017
635, 167.5, 17.5, 0.062875312499999989
636, 170, 17.5, 0.058904999999999999
637, 172.5, 17.5, 0.054790312499999973
638, 175, 17.5, 0.05053125
639, 177.5, 17.5, 0.046127812500000011
640, 180, 17.5, 0.041579999999999992
641, 182.5, 17.5, 0.036887812500000006
642, 185, 17.5, 0.032051249999999983
643, 187.5, 17.5, 0.027070312499999995
644, 190, 17.5, 0.021945000000000017
645, 192.5, 17.5, 0.016675312499999987
646, 195, 17.5, 0.011261250000000009
647, 197.5, 17.5, 0.0057028124999999787
648, 200, 17.5, 0
649, 0, 20, 0
650, 2.5, 20, 0.0063200000000000027
651, 5, 20, 0.012480000000000003
652, 7.5, 20, 0.01848
653, 10, 20, 0.024320000000000008
654, 12.5, 20, 0.030000000000000006
655, 15, 20, 0.035520000000000003
656, 17.5, 20, 0.04088
657, 20, 20, 0.046080000000000017
658, 22.5, 20, 0.051119999999999999
659, 25, 20, 0.056000000000000008
660, 27.5, 20, 0.060720000000000024
661, 30, 20, 0.065280000000000005
662, 32.5, 20, 0.069680000000000006
663, 35, 20, 0.073919999999999986
664, 37.5, 20, 0.078000000000000014
665, 40, 20, 0.081920000000000034
666, 42.5, 20, 0.085680000000000006
667, 45, 20, 0.089280000000000026
668, 47.5, 20, 0.092720000000000011
669, 50, 20, 0.09600000000000003
670, 52.5, 20, 0.099120000000000014
671, 55, 20, 0.10208000000000002
672, 57.5, 20, 0.10488
673, 60, 20, 0.10752
674, 62.5, 20, 0.11000000000000001
675, 65, 20, 0.11232000000000003
676, 67.5, 20, 0.11448000000000001
677, 70, 20, 0.11648000000000001
678, 72.5, 20, 0.11832000000000001
679, 75, 20, 0.12000000000000002
680, 77.5, 20, 0.12152000000000003
681, 80, 20, 0.12288000000000004
682, 82.5, 20, 0.12408000000000002
683, 85, 20, 0.12512000000000001
684, 87.5, 20, 0.12600000000000003
685, 90, 20, 0.12672000000000003
686, 92.5, 20, 0.12728000000000003
687, 95, 20, 0.12768000000000002
688, 97.5, 20, 0.12792000000000001
689, 100, 20, 0.12800000000000003
690, 102.5, 20, 0.12792000000000001
691, 105, 20, 0.12768000000000002
692, 107.5, 20, 0.12728000000000003
693, 110, 20, 0.12672000000000003
694, 112.5, 20, 0.126
695, 115, 20, 0.12512000000000001
696, 117.5, 20, 0.12408000000000002
697, 120, 20, 0.12288000000000002
698, 122.5, 20, 0.12152000000000002
699, 125, 20, 0.12000000000000002
700, 127.5, 20, 0.11832000000000004
701, 130, 20, 0.11648000000000001
702, 132.5, 20, 0.11448000000000003
703, 135, 20, 0.11232
704, 137.5, 20, 0.11000000000000001
705, 140, 20, 0.10752000000000002
706, 142.5, 20, 0.10488
707, 145, 20, 0.10208000000000002
708, 147.5, 20, 0.09912
709, 150, 20, 0.09600000000000003
710, 152.5, 20, 0.092720000000000025
711, 155, 20, 0.089280000000000026
712, 157.5, 20, 0.085680000000000034
713, 160, 20, 0.081920000000000007
714, 162.5, 20, 0.078000000000000014
715, 165, 20, 0.073920000000000027
716, 167.5, 20, 0.069680000000000006
717, 170, 20, 0.065280000000000019
718, 172.5, 20, 0.060719999999999989
719, 175, 20, 0.056000000000000008
720, 177.5, 20, 0.051120000000000027
721, 180, 20, 0.046080000000000003
722, 182.5, 20, 0.040880000000000014
723, 185, 20, 0.035519999999999989
724, 187.5, 20, 0.030000000000000006
725, 190, 20, 0.024320000000000022
726, 192.5, 20, 0.018479999999999993
727, 195, 20, 0.012480000000000012
728, 197.5, 20, 0.0063199999999999784
729, 200, 20, 0
730, 0, 22.5, 0
731, 2.5, 22.5, 0.0068878125000000016
732, 5, 22.5, 0.013601250000000002
733, 7.5, 22.5, 0.0201403125
734, 10, 22.5, 0.026505000000000008
735, 12.5, 22.5, 0.032695312500000004
736, 15, 22.5, 0.038711250000000003
737, 17.5, 22.5, 0.044552812499999997
738, 20, 22.5, 0.050220000000000022
739, 22.5, 22.5, 0.055712812500000007
740, 25, 22.5, 0.061031250000000016
741, 27.5, 22.5, 0.066175312500000014
742, 30, 22.5, 0.071145
743, 32.5, 22.5, 0.075940312500000023
744, 35, 22.5, 0.080561249999999987
745, 37.5, 22.5, 0.085007812500000002
746, 40, 22.5, 0.089280000000000026
747, 42.5, 22.5, 0.093377812500000004
748, 45, 22.5, 0.09730125000000002
749, 47.5, 22.5, 0.10105031250000002
750, 50, 22.5, 0.10462500000000004
751, 52.5, 22.5, 0.10802531250000003
752, 55, 22.5, 0.11125125000000001
753, 57.5, 22.5, 0.1143028125
754, 60, 22.5, 0.11718000000000001
755, 62.5, 22.5, 0.1198828125
756, 65, 22.5, 0.12241125000000001
757, 67.5, 22.5, 0.1247653125
758, 70, 22.5, 0.126945
759, 72.5, 22.5, 0.1289503125
760, 75, 22.5, 0.13078125000000004
761, 77.5, 22.5, 0.13243781250000006
762, 80, 22.5, 0.13392000000000004
763, 82.5, 22.5, 0.13522781250000002
764, 85, 22.5, 0.13636125000000002
765, 87.5, 22.5, 0.13732031250000001
766, 90, 22.5, 0.13810500000000003
767, 92.5, 22.5, 0.13871531250000002
768, 95, 22.5, 0.13915125
769, 97.5, 22.5, 0.13941281250000001
770, 100, 22.5, 0.13950000000000001
771, 102.5, 22.5, 0.13941281250000001
772, 105, 22.5, 0.13915125
773, 107.5, 22.5, 0.13871531249999999
774, 110, 22.5, 0.13810500000000003
775, 112.5, 22.5, 0.13732031250000001
776, 115, 22.5, 0.13636125000000002
777, 117.5, 22.5, 0.13522781249999999
778, 120, 22.5, 0.13392000000000001
779, 122.5, 22.5, 0.1324378125
780, 125, 22.5, 0.13078125000000002
781, 127.5, 22.5, 0.12895031250000005
782, 130, 22.5, 0.126945
783, 132.5, 22.5, 0.12476531250000003
784, 135, 22.5, 0.12241125000000001
785, 137.5, 22.5, 0.1198828125
786, 140, 22.5, 0.11718000000000001
787, 142.5, 22.5, 0.1143028125
788, 145, 22.5, 0.11125125000000001
789, 147.5, 22.5, 0.1080253125
790, 150, 22.5, 0.10462500000000004
791, 152.5, 22.5, 0.10105031250000004
792, 155, 22.5, 0.09730125000000002
793, 157.5, 22.5, 0.093377812500000018
794, 160, 22.5, 0.089280000000000012
795, 162.5, 22.5, 0.085007812500000002
796, 165, 22.5, 0.080561250000000029
797, 167.5, 22.5, 0.075940312499999996
798, 170, 22.5, 0.071145000000000014
799, 172.5, 22.5, 0.066175312499999986
800, 175, 22.5, 0.061031250000000016
801, 177.5, 22.5, 0.055712812500000028
802, 180, 22.5, 0.050220000000000001
803, 182.5, 22.5, 0.044552812500000018
804, 185, 22.5, 0.038711249999999982
805, 187.5, 22.5, 0.032695312500000004
806, 190, 22.5, 0.026505000000000022
807, 192.5, 22.5, 0.02014031249999999
808, 195, 22.5, 0.013601250000000014
809, 197.5, 22.5, 0.0068878124999999756
810, 200, 22.5, 0
811, 0, 25, 0
812, 2.5, 25, 0.0074062500000000014
813, 5, 25, 0.014625000000000003
814, 7.5, 25, 0.021656249999999998
815, 10, 25, 0.028500000000000004
816, 12.5, 25, 0.03515625
817, 15, 25, 0.041625000000000002
818, 17.5, 25, 0.047906249999999991
819, 20, 25, 0.05400000000000002
820, 22.5, 25, 0.059906250000000001
821, 25, 25, 0.065625000000000003
822, 27.5, 25, 0.071156250000000004
823, 30, 25, 0.076499999999999999
824, 32.5, 25, 0.081656250000000014
825, 35, 25, 0.08662499999999998
826, 37.5, 25, 0.091406250000000008
827, 40, 25, 0.09600000000000003
828, 42.5, 25, 0.10040625
829, 45, 25, 0.10462500000000001
830, 47.5, 25, 0.10865625000000001
831, 50, 25, 0.11250000000000002
832, 52.5, 25, 0.11615625000000002
833, 55, 25, 0.11962500000000001
834, 57.5, 25, 0.12290624999999999
835, 60, 25, 0.126
836, 62.5, 25, 0.12890625
837, 65, 25, 0.13162500000000002
838, 67.5, 25, 0.13415625
839, 70, 25, 0.13650000000000001
840, 72.5, 25, 0.13865624999999998
841, 75, 25, 0.14062500000000003
842, 77.5, 25, 0.14240625000000004
843, 80, 25, 0.14400000000000002
844, 82.5, 25, 0.14540625000000001
845, 85, 25, 0.14662500000000001
846, 87.5, 25, 0.14765625000000002
847, 90, 25, 0.14850000000000002
848, 92.5, 25, 0.14915625000000002
849, 95, 25, 0.14962500000000001
850, 97.5, 25, 0.14990624999999999
851, 100, 25, 0.15000000000000002
852, 102.5, 25, 0.14990624999999999
853, 105, 25, 0.14962500000000001
854, 107.5, 25, 0.14915624999999999
855, 110, 25, 0.14850000000000002
856, 112.5, 25, 0.14765624999999999
857, 115, 25, 0.14662500000000001
858, 117.5, 25, 0.14540624999999999
859, 120, 25, 0.14400000000000002
860, 122.5, 25, 0.14240624999999998
861, 125, 25, 0.140625
862, 127.5, 25, 0.13865625000000004
863, 130, 25, 0.13650000000000001
864, 132.5, 25, 0.13415625000000003
865, 135, 25, 0.13162499999999999
866, 137.5, 25, 0.12890625
867, 140, 25, 0.126
868, 142.5, 25, 0.12290624999999999
869, 145, 25, 0.11962500000000001
870, 147.5, 25, 0.11615624999999999
871, 150, 25, 0.11250000000000002
872, 152.5, 25, 0.10865625000000002
873, 155, 25, 0.10462500000000001
874, 157.5, 25, 0.10040625000000002
875, 160, 25, 0.096000000000000002
876, 162.5, 25, 0.091406250000000008
877, 165, 25, 0.086625000000000021
878, 167.5, 25, 0.081656249999999986
879, 170, 25, 0.076500000000000012
880, 172.5, 25, 0.071156249999999976
881, 175, 25, 0.065625000000000003
882, 177.5, 25, 0.059906250000000022
883, 180, 25, 0.053999999999999992
884, 182.5, 25, 0.047906250000000011
885, 185, 25, 0.041624999999999981
886, 187.5, 25, 0.03515625
887, 190, 25, 0.028500000000000025
888, 192.5, 25, 0.021656249999999988
889, 195, 25, 0.014625000000000013
890, 197.5, 25, 0.0074062499999999736
891, 200, 25, 0
892, 0, 27.5, 0
893, 2.5, 27.5, 0.0078753125000000021
894, 5, 27.5, 0.015551250000000003
895, 7.5, 27.5, 0.023027812499999998
896, 10, 27.5, 0.030305000000000006
897, 12.5, 27.5, 0.037382812500000001
898, 15, 27.5, 0.044261250000000002
899, 17.5, 27.5, 0.050940312499999994
900, 20, 27.5, 0.05742000000000002
901, 22.5, 27.5, 0.063700312500000009
902, 25, 27.5, 0.069781250000000003
903, 27.5, 27.5, 0.07566281250000001
904, 30, 27.5, 0.081345000000000001
905, 32.5, 27.5, 0.086827812500000018
906, 35, 27.5, 0.092111249999999992
907, 37.5, 27.5, 0.09719531250000002
908, 40, 27.5, 0.10208000000000002
909, 42.5, 27.5, 0.10676531250000001
910, 45, 27.5, 0.11125125000000002
911, 47.5, 27.5, 0.1155378125
912, 50, 27.5, 0.11962500000000002
913, 52.5, 27.5, 0.12351281250000001
914, 55, 27.5, 0.12720125000000002
915, 57.5, 27.5, 0.13069031250000002
916, 60, 27.5, 0.13397999999999999
917, 62.5, 27.5, 0.13707031250000001
918, 65, 27.5, 0.13996125000000001
919, 67.5, 27.5, 0.14265281250000003
920, 70, 27.5, 0.145145
921, 72.5, 27.5, 0.14743781249999999
922, 75, 27.5, 0.14953125000000003
923, 77.5, 27.5, 0.15142531250000005
924, 80, 27.5, 0.15312000000000003
925, 82.5, 27.5, 0.15461531250000002
926, 85, 27.5, 0.15591125
927, 87.5, 27.5, 0.15700781250000004
928, 90, 27.5, 0.15790500000000002
929, 92.5, 27.5, 0.15860281250000002
930, 95, 27.5, 0.15910125000000003
931, 97.5, 27.5, 0.1594003125
932, 100, 27.5, 0.1595
933, 102.5, 27.5, 0.1594003125
934, 105, 27.5, 0.15910125000000003
935, 107.5, 27.5, 0.15860281250000002
936, 110, 27.5, 0.15790500000000002
937, 112.5, 27.5, 0.15700781250000001
938, 115, 27.5, 0.15591125
939, 117.5, 27.5, 0.15461531250000002
940, 120, 27.5, 0.15312000000000001
941, 122.5, 27.5, 0.15142531249999999
942, 125, 27.5, 0.14953125
943, 127.5, 27.5, 0.14743781250000004
944, 130, 27.5, 0.145145
945, 132.5, 27.5, 0.14265281250000003
946, 135, 27.5, 0.13996124999999998
947, 137.5, 27.5, 0.13707031250000001
948, 140, 27.5, 0.13398000000000002
949, 142.5, 27.5, 0.13069031250000002
950, 145, 27.5, 0.12720125000000002
951, 147.5, 27.5, 0.1235128125
952, 150, 27.5, 0.11962500000000002
953, 152.5, 27.5, 0.11553781250000003
954, 155, 27.5, 0.11125125000000002
955, 157.5, 27.5, 0.10676531250000003
956, 160, 27.5, 0.10208
957, 162.5, 27.5, 0.09719531250000002
958, 165, 27.5, 0.092111250000000033
959, 167.5, 27.5, 0.08682781249999999
960, 170, 27.5, 0.081345000000000028
961, 172.5, 27.5, 0.075662812499999982
962, 175, 27.5, 0.069781250000000003
963, 177.5, 27.5, 0.063700312500000023
964, 180, 27.5, 0.057420000000000006
965, 182.5, 27.5, 0.050940312500000015
966, 185, 27.5, 0.044261249999999981
967, 187.5, 27.5, 0.037382812500000001
968, 190, 27.5, 0.030305000000000026
969, 192.5, 27.5, 0.023027812499999988
970, 195, 27.5, 0.015551250000000015
971, 197.5, 27.5, 0.0078753124999999726
972, 200, 27.5, 0
973, 0, 30, 0
974, 2.5, 30, 0.0082950000000000003
975, 5, 30, 0.016380000000000002
976, 7.5, 30, 0.024254999999999995
977, 10, 30, 0.031920000000000004
978, 12.5, 30, 0.039374999999999993
979, 15, 30, 0.046619999999999995
980, 17.5, 30, 0.053654999999999987
981, 20, 30, 0.060480000000000006
982, 22.5, 30, 0.067095000000000002
983, 25, 30, 0.073499999999999996
984, 27.5, 30, 0.079695000000000002
985, 30, 30, 0.085679999999999978
986, 32.5, 30, 0.091455000000000009
987, 35, 30, 0.097019999999999981
988, 37.5, 30, 0.10237500000000001
989, 40, 30, 0.10752000000000002
990, 42.5, 30, 0.11245499999999999
991, 45, 30, 0.11718000000000001
992, 47.5, 30, 0.121695
993, 50, 30, 0.126
994, 52.5, 30, 0.13009500000000002
995, 55, 30, 0.13397999999999999
996, 57.5, 30, 0.13765499999999997
997, 60, 30, 0.14111999999999997
998, 62.5, 30, 0.14437499999999998
999, 65, 30, 0.14742
1000, 67.5, 30, 0.150255
1001, 70, 30, 0.15287999999999999
1002, 72.5, 30, 0.15529499999999996
1003, 75, 30, 0.1575
1004, 77.5, 30, 0.15949500000000003
1005, 80, 30, 0.16128000000000001
1006, 82.5, 30, 0.162855
1007, 85, 30, 0.16422
1008, 87.5, 30, 0.16537499999999999
1009, 90, 30, 0.16632000000000002
1010, 92.5, 30, 0.16705500000000001
1011, 95, 30, 0.16757999999999998
1012, 97.5, 30, 0.16789499999999999
1013, 100, 30, 0.16799999999999998
1014, 102.5, 30, 0.16789499999999999
1015, 105, 30, 0.16757999999999998
1016, 107.5, 30, 0.16705499999999998
1017, 110, 30, 0.16632
1018, 112.5, 30, 0.16537499999999999
1019, 115, 30, 0.16422
1020, 117.5, 30, 0.16285499999999997
1021, 120, 30, 0.16127999999999998
1022, 122.5, 30, 0.15949499999999997
1023, 125, 30, 0.15749999999999997
1024, 127.5, 30, 0.15529500000000002
1025, 130, 30, 0.15287999999999999
1026, 132.5, 30, 0.15025500000000003
1027, 135, 30, 0.14741999999999997
1028, 137.5, 30, 0.14437499999999998
1029, 140, 30, 0.14112
1030, 142.5, 30, 0.13765499999999997
1031, 145, 30, 0.13397999999999999
1032, 147.5, 30, 0.13009499999999999
1033, 150, 30, 0.126
1034, 152.5, 30, 0.12169500000000001
1035, 155, 30, 0.11718000000000001
1036, 157.5, 30, 0.112455
1037, 160, 30, 0.10751999999999999
1038, 162.5, 30, 0.10237500000000001
1039, 165, 30, 0.097020000000000009
1040, 167.5, 30, 0.091454999999999981
1041, 170, 30, 0.085680000000000006
1042, 172.5, 30, 0.079694999999999974
1043, 175, 30, 0.073499999999999996
1044, 177.5, 30, 0.067095000000000016
1045, 180, 30, 0.060479999999999992
1046, 182.5, 30, 0.053655000000000001
1047, 185, 30, 0.046619999999999974
1048, 187.5, 30, 0.039374999999999993
1049, 190, 30, 0.031920000000000025
1050, 192.5, 30, 0.024254999999999985
1051, 195, 30, 0.016380000000000013
1052, 197.5, 30, 0.0082949999999999691
1053, 200, 30, 0
1054, 0, 32.5, 0
1055, 2.5, 32.5, 0.0086653125000000029
1056, 5, 32.5, 0.017111250000000005
1057, 7.5, 32.5, 0.025337812500000001
1058, 10, 32.5, 0.033345000000000007
1059, 12.5, 32.5, 0.041132812500000004
1060, 15, 32.5, 0.048701250000000008
1061, 17.5, 32.5, 0.056050312499999998
1062, 20, 32.5, 0.063180000000000028
1063, 22.5, 32.5, 0.070090312500000002
1064, 25, 32.5, 0.076781250000000023
1065, 27.5, 32.5, 0.083252812500000023
1066, 30, 32.5, 0.089505000000000001
1067, 32.5, 32.5, 0.095537812500000013
1068, 35, 32.5, 0.10135124999999999
1069, 37.5, 32.5, 0.10694531250000001
1070, 40, 32.5, 0.11232000000000004
1071, 42.5, 32.5, 0.11747531250000001
1072, 45, 32.5, 0.12241125000000001
1073, 47.5, 32.5, 0.12712781250000002
1074, 50, 32.5, 0.13162500000000002
1075, 52.5, 32.5, 0.13590281250000003
1076, 55, 32.5, 0.13996125000000001
1077, 57.5, 32.5, 0.1438003125
1078, 60, 32.5, 0.14742
1079, 62.5, 32.5, 0.15082031250000003
1080, 65, 32.5, 0.15400125000000003
1081, 67.5, 32.5, 0.15696281250000002
1082, 70, 32.5, 0.15970500000000001
1083, 72.5, 32.5, 0.16222781249999998
1084, 75, 32.5, 0.16453125000000005
1085, 77.5, 32.5, 0.16661531250000006
1086, 80, 32.5, 0.16848000000000005
1087, 82.5, 32.5, 0.17012531250000004
1088, 85, 32.5, 0.17155125000000004
1089, 87.5, 32.5, 0.17275781250000005
1090, 90, 32.5, 0.17374500000000007
1091, 92.5, 32.5, 0.17451281250000003
1092, 95, 32.5, 0.17506125000000003
1093, 97.5, 32.5, 0.17539031250000001
1094, 100, 32.5, 0.17550000000000002
1095, 102.5, 32.5, 0.17539031250000001
1096, 105, 32.5, 0.17506125000000003
1097, 107.5, 32.5, 0.17451281250000003
1098, 110, 32.5, 0.17374500000000001
1099, 112.5, 32.5, 0.1727578125
1100, 115, 32.5, 0.17155125000000004
1101, 117.5, 32.5, 0.17012531250000004
1102, 120, 32.5, 0.16848000000000002
1103, 122.5, 32.5, 0.1666153125
1104, 125, 32.5, 0.16453125000000002
1105, 127.5, 32.5, 0.16222781250000007
1106, 130, 32.5, 0.15970500000000001
1107, 132.5, 32.5, 0.15696281250000005
1108, 135, 32.5, 0.15400125000000001
1109, 137.5, 32.5, 0.15082031250000003
1110, 140, 32.5, 0.14742000000000002
1111, 142.5, 32.5, 0.1438003125
1112, 145, 32.5, 0.13996125000000001
1113, 147.5, 32.5, 0.1359028125
1114, 150, 32.5, 0.13162500000000002
1115, 152.5, 32.5, 0.12712781250000005
1116, 155, 32.5, 0.12241125000000001
1117, 157.5, 32.5, 0.11747531250000004
1118, 160, 32.5, 0.11232000000000002
1119, 162.5, 32.5, 0.10694531250000001
1120, 165, 32.5, 0.10135125000000005
1121, 167.5, 32.5, 0.095537812499999999
1122, 170, 32.5, 0.089505000000000015
1123, 172.5, 32.5, 0.083252812499999995
1124, 175, 32.5, 0.076781250000000023
1125, 177.5, 32.5, 0.070090312500000029
1126, 180, 32.5, 0.06318
1127, 182.5, 32.5, 0.056050312500000025
1128, 185, 32.5, 0.048701249999999981
1129, 187.5, 32.5, 0.041132812500000004
1130, 190, 32.5, 0.033345000000000034
1131, 192.5, 32.5, 0.025337812499999987
1132, 195, 32.5, 0.017111250000000015
1133, 197.5, 32.5, 0.0086653124999999699
1134, 200, 32.5, 0
1135, 0, 35, 0
1136, 2.5, 35, 0.0089862500000000012
1137, 5, 35, 0.017745000000000004
1138, 7.5, 35, 0.026276249999999998
1139, 10, 35, 0.034580000000000007
1140, 12.5, 35, 0.042656249999999993
1141, 15, 35, 0.050504999999999994
1142, 17.5, 35, 0.058126249999999983
1143, 20, 35, 0.065520000000000023
1144, 22.5, 35, 0.072686249999999994
1145, 25, 35, 0.079625000000000001
1146, 27.5, 35, 0.086336250000000003
1147, 30, 35, 0.092819999999999986
1148, 32.5, 35, 0.099076250000000005
1149, 35, 35, 0.10510499999999998
1150, 37.5, 35, 0.11090625
1151, 40, 35, 0.11648000000000001
1152, 42.5, 35, 0.12182625
1153, 45, 35, 0.126945
1154, 47.5, 35, 0.13183625000000002
1155, 50, 35, 0.13650000000000001
1156, 52.5, 35, 0.14093625000000001
1157, 55, 35, 0.145145
1158, 57.5, 35, 0.14912624999999999
1159, 60, 35, 0.15287999999999999
1160, 62.5, 35, 0.15640625
1161, 65, 35, 0.15970500000000001
1162, 67.5, 35, 0.16277625000000001
1163, 70, 35, 0.16561999999999999
1164, 72.5, 35, 0.16823624999999998
1165, 75, 35, 0.17062500000000003
1166, 77.5, 35, 0.17278625000000003
1167, 80, 35, 0.17472000000000004
1168, 82.5, 35, 0.17642625000000003
1169, 85, 35, 0.17790500000000001
1170, 87.5, 35, 0.17915625000000002
1171, 90, 35, 0.18018000000000003
1172, 92.5, 35, 0.18097625000000003
1173, 95, 35, 0.18154500000000001
1174, 97.5, 35, 0.18188625
1175, 100, 35, 0.182
1176, 102.5, 35, 0.18188625
1177, 105, 35, 0.18154500000000001
1178, 107.5, 35, 0.18097625000000001
1179, 110, 35, 0.18018000000000001
1180, 112.5, 35, 0.17915624999999999
1181, 115, 35, 0.17790500000000001
1182, 117.5, 35, 0.17642624999999998
1183, 120, 35, 0.17471999999999999
1184, 122.5, 35, 0.17278625
1185, 125, 35, 0.17062499999999997
1186, 127.5, 35, 0.16823625000000003
1187, 130, 35, 0.16561999999999999
1188, 132.5, 35, 0.16277625000000001
1189, 135, 35, 0.15970499999999999
1190, 137.5, 35, 0.15640625
1191, 140, 35, 0.15287999999999999
1192, 142.5, 35, 0.14912624999999999
1193, 145, 35, 0.145145
1194, 147.5, 35, 0.14093624999999999
1195, 150, 35, 0.13650000000000001
1196, 152.5, 35, 0.13183625000000002
1197, 155, 35, 0.126945
1198, 157.5, 35, 0.12182625000000001
1199, 160, 35, 0.11648
1200, 162.5, 35, 0.11090625
1201, 165, 35, 0.10510500000000003
1202, 167.5, 35, 0.099076249999999991
1203, 170, 35, 0.092820000000000014
1204, 172.5, 35, 0.086336249999999962
1205, 175, 35, 0.079625000000000001
1206, 177.5, 35, 0.072686250000000022
1207, 180, 35, 0.065519999999999995
1208, 182.5, 35, 0.058126250000000011
1209, 185, 35, 0.05050499999999998
1210, 187.5, 35, 0.042656249999999993
1211, 190, 35, 0.034580000000000034
1212, 192.5, 35, 0.026276249999999984
1213, 195, 35, 0.017745000000000014
1214, 197.5, 35, 0.0089862499999999682
1215, 200, 35, 0
1216, 0, 37.5, 0
1217, 2.5, 37.5, 0.0092578125000000022
1218, 5, 37.5, 0.018281250000000002
1219, 7.5, 37.5, 0.027070312499999999
1220, 10, 37.5, 0.035625000000000004
1221, 12.5, 37.5, 0.0439453125
1222, 15, 37.5, 0.052031250000000001
1223, 17.5, 37.5, 0.059882812499999986
1224, 20, 37.5, 0.067500000000000032
1225, 22.5, 37.5, 0.074882812500000007
1226, 25, 37.5, 0.08203125
1227, 27.5, 37.5, 0.088945312500000012
1228, 30, 37.5, 0.095625000000000002
1229, 32.5, 37.5, 0.10207031250000001
1230, 35, 37.5, 0.10828124999999997
1231, 37.5, 37.5, 0.11425781250000001
1232, 40, 37.5, 0.12000000000000004
1233, 42.5, 37.5, 0.12550781250000001
1234, 45, 37.5, 0.13078125000000002
1235, 47.5, 37.5, 0.13582031250000001
1236, 50, 37.5, 0.14062500000000003
1237, 52.5, 37.5, 0.14519531250000001
1238, 55, 37.5, 0.14953125
1239, 57.5, 37.5, 0.15363281249999999
1240, 60, 37.5, 0.1575
1241, 62.5, 37.5, 0.1611328125
1242, 65, 37.5, 0.16453125000000002
1243, 67.5, 37.5, 0.1676953125
1244, 70, 37.5, 0.17062500000000003
1245, 72.5, 37.5, 0.17332031249999996
1246, 75, 37.5, 0.17578125000000003
1247, 77.5, 37.5, 0.17800781250000006
1248, 80, 37.5, 0.18000000000000002
1249, 82.5, 37.5, 0.1817578125
1250, 85, 37.5, 0.18328125000000001
1251, 87.5, 37.5, 0.18457031250000003
1252, 90, 37.5, 0.18562500000000004
1253, 92.5, 37.5, 0.18644531250000002
1254, 95, 37.5, 0.18703125000000001
1255, 97.5, 37.5, 0.1873828125
1256, 100, 37.5, 0.18750000000000003
1257, 102.5, 37.5, 0.1873828125
1258, 105, 37.5, 0.18703125000000001
1259, 107.5, 37.5, 0.18644531249999999
1260, 110, 37.5, 0.18562500000000004
1261, 112.5, 37.5, 0.1845703125
1262, 115, 37.5, 0.18328125000000001
1263, 117.5, 37.5, 0.18175781249999998
1264, 120, 37.5, 0.18000000000000002
1265, 122.5, 37.5, 0.17800781249999997
1266, 125, 37.5, 0.17578125
1267, 127.5, 37.5, 0.17332031250000005
1268, 130, 37.5, 0.17062500000000003
1269, 132.5, 37.5, 0.16769531250000003
1270, 135, 37.5, 0.16453124999999999
1271, 137.5, 37.5, 0.1611328125
1272, 140, 37.5, 0.1575
1273, 142.5, 37.5, 0.15363281249999999
1274, 145, 37.5, 0.14953125
1275, 147.5, 37.5, 0.14519531249999998
1276, 150, 37.5, 0.14062500000000003
1277, 152.5, 37.5, 0.13582031250000004
1278, 155, 37.5, 0.13078125000000002
1279, 157.5, 37.5, 0.12550781250000001
1280, 160, 37.5, 0.12
1281, 162.5, 37.5, 0.11425781250000001
1282, 165, 37.5, 0.10828125000000002
1283, 167.5, 37.5, 0.10207031249999998
1284, 170, 37.5, 0.095625000000000016
1285, 172.5, 37.5, 0.088945312499999971
1286, 175, 37.5, 0.08203125
1287, 177.5, 37.5, 0.074882812500000034
1288, 180, 37.5, 0.067499999999999991
1289, 182.5, 37.5, 0.059882812500000014
1290, 185, 37.5, 0.052031249999999973
1291, 187.5, 37.5, 0.0439453125
1292, 190, 37.5, 0.035625000000000032
1293, 192.5, 37.5, 0.027070312499999985
1294, 195, 37.5, 0.018281250000000016
1295, 197.5, 37.5, 0.0092578124999999675
1296, 200, 37.5, 0
1297, 0, 40, 0
1298, 2.5, 40, 0.0094800000000000023
1299, 5, 40, 0.018720000000000004
1300, 7.5, 40, 0.027719999999999998
1301, 10, 40, 0.036480000000000005
1302, 12.5, 40, 0.045000000000000005
1303, 15, 40, 0.053280000000000001
1304, 17.5, 40, 0.061319999999999986
1305, 20, 40, 0.069120000000000015
1306, 22.5, 40, 0.076679999999999998
1307, 25, 40, 0.084000000000000005
1308, 27.5, 40, 0.091080000000000022
1309, 30, 40, 0.097920000000000007
1310, 32.5, 40, 0.10452000000000002
1311, 35, 40, 0.11087999999999998
1312, 37.5, 40, 0.11700000000000002
1313, 40, 40, 0.12288000000000003
1314, 42.5, 40, 0.12852
1315, 45, 40, 0.13392000000000001
1316, 47.5, 40, 0.13908000000000001
1317, 50, 40, 0.14400000000000002
1318, 52.5, 40, 0.14868000000000001
1319, 55, 40, 0.15312000000000001
1320, 57.5, 40, 0.15731999999999999
1321, 60, 40, 0.16127999999999998
1322, 62.5, 40, 0.16500000000000001
1323, 65, 40, 0.16848000000000002
1324, 67.5, 40, 0.17172000000000001
1325, 70, 40, 0.17472000000000001
1326, 72.5, 40, 0.17748
1327, 75, 40, 0.18000000000000002
1328, 77.5, 40, 0.18228000000000003
1329, 80, 40, 0.18432000000000004
1330, 82.5, 40, 0.18612000000000001
1331, 85, 40, 0.18768000000000001
1332, 87.5, 40, 0.18900000000000003
1333, 90, 40, 0.19008000000000005
1334, 92.5, 40, 0.19092000000000001
1335, 95, 40, 0.19152000000000002
1336, 97.5, 40, 0.19188000000000002
1337, 100, 40, 0.19200000000000003
1338, 102.5, 40, 0.19188000000000002
1339, 105, 40, 0.19152000000000002
1340, 107.5, 40, 0.19092000000000001
1341, 110, 40, 0.19008
1342, 112.5, 40, 0.189
1343, 115, 40, 0.18768000000000001
1344, 117.5, 40, 0.18612000000000001
1345, 120, 40, 0.18432000000000001
1346, 122.5, 40, 0.18228
1347, 125, 40, 0.18000000000000002
1348, 127.5, 40, 0.17748000000000003
1349, 130, 40, 0.17472000000000001
1350, 132.5, 40, 0.17172000000000004
1351, 135, 40, 0.16847999999999999
1352, 137.5, 40, 0.16500000000000001
1353, 140, 40, 0.16128000000000001
1354, 142.5, 40, 0.15731999999999999
1355, 145, 40, 0.15312000000000001
1356, 147.5, 40, 0.14867999999999998
1357, 150, 40, 0.14400000000000002
1358, 152.5, 40, 0.13908000000000004
1359, 155, 40, 0.13392000000000001
1360, 157.5, 40, 0.12852000000000002
1361, 160, 40, 0.12288
1362, 162.5, 40, 0.11700000000000002
1363, 165, 40, 0.11088000000000005
1364, 167.5, 40, 0.10451999999999999
1365, 170, 40, 0.097920000000000021
1366, 172.5, 40, 0.09107999999999998
1367, 175, 40, 0.084000000000000005
1368, 177.5, 40, 0.076680000000000026
1369, 180, 40, 0.069120000000000001
1370, 182.5, 40, 0.061320000000000013
1371, 185, 40, 0.053279999999999973
1372, 187.5, 40, 0.045000000000000005
1373, 190, 40, 0.036480000000000033
1374, 192.5, 40, 0.027719999999999984
1375, 195, 40, 0.018720000000000018
1376, 197.5, 40, 0.0094799999999999676
1377, 200, 40, 0
1378, 0, 42.5, 0
1379, 2.5, 42.5, 0.0096528125000000017
1380, 5, 42.5, 0.019061250000000002
1381, 7.5, 42.5, 0.028225312499999992
1382, 10, 42.5, 0.037144999999999997
1383, 12.5, 42.5, 0.045820312499999995
1384, 15, 42.5, 0.054251250000000001
1385, 17.5, 42.5, 0.062437812499999981
1386, 20, 42.5, 0.070380000000000012
1387, 22.5, 42.5, 0.078077812499999996
1388, 25, 42.5, 0.085531250000000003
1389, 27.5, 42.5, 0.092740312500000005
1390, 30, 42.5, 0.099704999999999974
1391, 32.5, 42.5, 0.10642531250000001
1392, 35, 42.5, 0.11290124999999997
1393, 37.5, 42.5, 0.1191328125
1394, 40, 42.5, 0.12512000000000001
1395, 42.5, 42.5, 0.13086281249999998
1396, 45, 42.5, 0.13636125000000002
1397, 47.5, 42.5, 0.14161531249999998
1398, 50, 42.5, 0.14662499999999998
1399, 52.5, 42.5, 0.15139031249999998
1400, 55, 42.5, 0.15591125
1401, 57.5, 42.5, 0.16018781249999997
1402, 60, 42.5, 0.16421999999999998
1403, 62.5, 42.5, 0.16800781249999999
1404, 65, 42.5, 0.17155124999999999
1405, 67.5, 42.5, 0.17485031249999999
1406, 70, 42.5, 0.17790499999999998
1407, 72.5, 42.5, 0.18071531249999995
1408, 75, 42.5, 0.18328125000000001
1409, 77.5, 42.5, 0.18560281250000002
1410, 80, 42.5, 0.18767999999999999
1411, 82.5, 42.5, 0.18951281250000002
1412, 85, 42.5, 0.19110124999999997
1413, 87.5, 42.5, 0.19244531249999999
1414, 90, 42.5, 0.19354500000000002
1415, 92.5, 42.5, 0.19440031250000001
1416, 95, 42.5, 0.19501125
1417, 97.5, 42.5, 0.19537781249999997
1418, 100, 42.5, 0.19550000000000001
1419, 102.5, 42.5, 0.19537781249999997
1420, 105, 42.5, 0.19501125
1421, 107.5, 42.5, 0.19440031249999998
1422, 110, 42.5, 0.19354499999999999
1423, 112.5, 42.5, 0.19244531249999997
1424, 115, 42.5, 0.19110124999999997
1425, 117.5, 42.5, 0.18951281249999996
1426, 120, 42.5, 0.18767999999999999
1427, 122.5, 42.5, 0.18560281249999996
1428, 125, 42.5, 0.18328124999999998
1429, 127.5, 42.5, 0.1807153125
1430, 130, 42.5, 0.17790499999999998
1431, 132.5, 42.5, 0.17485031250000002
1432, 135, 42.5, 0.17155124999999996
1433, 137.5, 42.5, 0.16800781249999999
1434, 140, 42.5, 0.16422
1435, 142.5, 42.5, 0.16018781249999997
1436, 145, 42.5, 0.15591125
1437, 147.5, 42.5, 0.15139031249999996
1438, 150, 42.5, 0.14662499999999998
1439, 152.5, 42.5, 0.14161531250000001
1440, 155, 42.5, 0.13636125000000002
1441, 157.5, 42.5, 0.13086281250000001
1442, 160, 42.5, 0.12511999999999998
1443, 162.5, 42.5, 0.1191328125
1444, 165, 42.5, 0.11290125000000002
1445, 167.5, 42.5, 0.10642531249999997
1446, 170, 42.5, 0.099705000000000002
1447, 172.5, 42.5, 0.092740312499999963
1448, 175, 42.5, 0.085531250000000003
1449, 177.5, 42.5, 0.07807781250000001
1450, 180, 42.5, 0.070379999999999984
1451, 182.5, 42.5, 0.062437812500000002
1452, 185, 42.5, 0.054251249999999966
1453, 187.5, 42.5, 0.045820312499999995
1454, 190, 42.5, 0.037145000000000032
1455, 192.5, 42.5, 0.028225312499999981
1456, 195, 42.5, 0.019061250000000012
1457, 197.5, 42.5, 0.0096528124999999652
1458, 200, 42.5, 0
1459, 0, 45, 0
1460, 2.5, 45, 0.009776250000000002
1461, 5, 45, 0.019305000000000006
1462, 7.5, 45, 0.028586250000000004
1463, 10, 45, 0.037620000000000015
1464, 12.5, 45, 0.04640625000000001
1465, 15, 45, 0.054945000000000008
1466, 17.5, 45, 0.063236249999999994
1467, 20, 45, 0.071280000000000038
1468, 22.5, 45, 0.079076250000000015
1469, 25, 45, 0.086625000000000021
1470, 27.5, 45, 0.093926250000000031
1471, 30, 45, 0.10098
1472, 32.5, 45, 0.10778625000000003
1473, 35, 45, 0.11434499999999999
1474, 37.5, 45, 0.12065625000000002
1475, 40, 45, 0.12672000000000003
1476, 42.5, 45, 0.13253624999999999
1477, 45, 45, 0.13810500000000003
1478, 47.5, 45, 0.14342625000000003
1479, 50, 45, 0.14850000000000005
1480, 52.5, 45, 0.15332625000000005
1481, 55, 45, 0.15790500000000002
1482, 57.5, 45, 0.16223625
1483, 60, 45, 0.16632000000000002
1484, 62.5, 45, 0.17015625000000001
1485, 65, 45, 0.17374500000000001
1486, 67.5, 45, 0.17708625000000003
1487, 70, 45, 0.18018000000000001
1488, 72.5, 45, 0.18302625
1489, 75, 45, 0.18562500000000007
1490, 77.5, 45, 0.18797625000000007
1491, 80, 45, 0.19008000000000005
1492, 82.5, 45, 0.19193625000000003
1493, 85, 45, 0.19354500000000005
1494, 87.5, 45, 0.19490625000000003
1495, 90, 45, 0.19602000000000006
1496, 92.5, 45, 0.19688625000000004
1497, 95, 45, 0.19750500000000004
1498, 97.5, 45, 0.19787625000000003
1499, 100, 45, 0.19800000000000004
1500, 102.5, 45, 0.19787625000000003
1501, 105, 45, 0.19750500000000004
1502, 107.5, 45, 0.19688625000000001
1503, 110, 45, 0.19602000000000006
1504, 112.5, 45, 0.19490625
1505, 115, 45, 0.19354500000000005
1506, 117.5, 45, 0.19193625
1507, 120, 45, 0.19008000000000003
1508, 122.5, 45, 0.18797625000000001
1509, 125, 45, 0.18562500000000004
1510, 127.5, 45, 0.18302625000000006
1511, 130, 45, 0.18018000000000001
1512, 132.5, 45, 0.17708625000000006
1513, 135, 45, 0.17374500000000001
1514, 137.5, 45, 0.17015625000000001
1515, 140, 45, 0.16632000000000002
1516, 142.5, 45, 0.16223625
1517, 145, 45, 0.15790500000000002
1518, 147.5, 45, 0.15332625
1519, 150, 45, 0.14850000000000005
1520, 152.5, 45, 0.14342625000000006
1521, 155, 45, 0.13810500000000003
1522, 157.5, 45, 0.13253625000000005
1523, 160, 45, 0.12672000000000003
1524, 162.5, 45, 0.12065625000000002
1525, 165, 45, 0.11434500000000004
1526, 167.5, 45, 0.10778625
1527, 170, 45, 0.10098000000000003
1528, 172.5, 45, 0.093926249999999989
1529, 175, 45, 0.086625000000000021
1530, 177.5, 45, 0.079076250000000042
1531, 180, 45, 0.071279999999999996
1532, 182.5, 45, 0.063236250000000022
1533, 185, 45, 0.054944999999999973
1534, 187.5, 45, 0.04640625000000001
1535, 190, 45, 0.037620000000000035
1536, 192.5, 45, 0.028586249999999987
1537, 195, 45, 0.01930500000000002
1538, 197.5, 45, 0.0097762499999999655
1539, 200, 45, 0
1540, 0, 47.5, 0
1541, 2.5, 47.5, 0.0098503125000000014
1542, 5, 47.5, 0.019451250000000003
1543, 7.5, 47.5, 0.028802812499999997
1544, 10, 47.5, 0.037905000000000008
1545, 12.5, 47.5, 0.046757812499999996
1546, 15, 47.5, 0.055361250000000001
1547, 17.5, 47.5, 0.063715312499999982
1548, 20, 47.5, 0.071820000000000023
1549, 22.5, 47.5, 0.079675312499999998
1550, 25, 47.5, 0.087281250000000005
1551, 27.5, 47.5, 0.094637812500000015
1552, 30, 47.5, 0.10174499999999999
1553, 32.5, 47.5, 0.10860281250000001
1554, 35, 47.5, 0.11521124999999997
1555, 37.5, 47.5, 0.12157031250000001
1556, 40, 47.5, 0.12768000000000004
1557, 42.5, 47.5, 0.13354031250000001
1558, 45, 47.5, 0.13915125
1559, 47.5, 47.5, 0.1445128125
1560, 50, 47.5, 0.14962500000000004
1561, 52.5, 47.5, 0.15448781250000002
1562, 55, 47.5, 0.15910125
1563, 57.5, 47.5, 0.16346531249999999
1564, 60, 47.5, 0.16757999999999998
1565, 62.5, 47.5, 0.1714453125
1566, 65, 47.5, 0.17506125000000003
1567, 67.5, 47.5, 0.1784278125
1568, 70, 47.5, 0.18154500000000001
1569, 72.5, 47.5, 0.1844128125
1570, 75, 47.5, 0.18703125000000001
1571, 77.5, 47.5, 0.18940031250000003
1572, 80, 47.5, 0.19152000000000005
1573, 82.5, 47.5, 0.19339031250000002
1574, 85, 47.5, 0.19501125
1575, 87.5, 47.5, 0.19638281250000003
1576, 90, 47.5, 0.19750500000000001
1577, 92.5, 47.5, 0.19837781250000003
1578, 95, 47.5, 0.19900125000000002
1579, 97.5, 47.5, 0.19937531250000001
1580, 100, 47.5, 0.19950000000000001
1581, 102.5, 47.5, 0.19937531250000001
1582, 105, 47.5, 0.19900125000000002
1583, 107.5, 47.5, 0.1983778125
1584, 110, 47.5, 0.19750499999999999
1585, 112.5, 47.5, 0.19638281249999998
1586, 115, 47.5, 0.19501125
1587, 117.5, 47.5, 0.19339031249999999
1588, 120, 47.5, 0.19152000000000002
1589, 122.5, 47.5, 0.1894003125
1590, 125, 47.5, 0.18703124999999998
1591, 127.5, 47.5, 0.18441281250000002
1592, 130, 47.5, 0.18154500000000001
1593, 132.5, 47.5, 0.17842781250000003
1594, 135, 47.5, 0.17506125
1595, 137.5, 47.5, 0.1714453125
1596, 140, 47.5, 0.16758000000000001
1597, 142.5, 47.5, 0.16346531249999999
1598, 145, 47.5, 0.15910125
1599, 147.5, 47.5, 0.15448781249999999
1600, 150, 47.5, 0.14962500000000004
1601, 152.5, 47.5, 0.1445128125
1602, 155, 47.5, 0.13915125
1603, 157.5, 47.5, 0.13354031250000004
1604, 160, 47.5, 0.12768000000000002
1605, 162.5, 47.5, 0.12157031250000001
1606, 165, 47.5, 0.11521125000000004
1607, 167.5, 47.5, 0.10860281249999999
1608, 170, 47.5, 0.10174500000000002
1609, 172.5, 47.5, 0.094637812499999974
1610, 175, 47.5, 0.087281250000000005
1611, 177.5, 47.5, 0.079675312500000026
1612, 180, 47.5, 0.071819999999999995
1613, 182.5, 47.5, 0.06371531250000001
1614, 185, 47.5, 0.055361249999999973
1615, 187.5, 47.5, 0.046757812499999996
1616, 190, 47.5, 0.037905000000000029
1617, 192.5, 47.5, 0.028802812499999983
1618, 195, 47.5, 0.019451250000000017
1619, 197.5, 47.5, 0.009850312499999965
1620, 200, 47.5, 0
1621, 0, 50, 0
1622, 2.5, 50, 0.0098750000000000018
1623, 5, 50, 0.019500000000000003
1624, 7.5, 50, 0.028874999999999998
1625, 10, 50, 0.038000000000000006
1626, 12.5, 50, 0.046875
1627, 15, 50, 0.055500000000000001
1628, 17.5, 50, 0.063874999999999987
1629, 20, 50, 0.072000000000000022
1630, 22.5, 50, 0.079875000000000002
1631, 25, 50, 0.087500000000000008
1632, 27.5, 50, 0.094875000000000015
1633, 30, 50, 0.10199999999999999
1634, 32.5, 50, 0.10887500000000001
1635, 35, 50, 0.11549999999999998
1636, 37.5, 50, 0.12187500000000001
1637, 40, 50, 0.12800000000000003
1638, 42.5, 50, 0.13387499999999999
1639, 45, 50, 0.13950000000000001
1640, 47.5, 50, 0.144875
1641, 50, 50, 0.15000000000000002
1642, 52.5, 50, 0.15487500000000001
1643, 55, 50, 0.1595
1644, 57.5, 50, 0.16387499999999999
1645, 60, 50, 0.16799999999999998
1646, 62.5, 50, 0.171875
1647, 65, 50, 0.17550000000000002
1648, 67.5, 50, 0.17887500000000001
1649, 70, 50, 0.182
1650, 72.5, 50, 0.18487499999999998
1651, 75, 50, 0.18750000000000003
1652, 77.5, 50, 0.18987500000000004
1653, 80, 50, 0.19200000000000003
1654, 82.5, 50, 0.19387500000000002
1655, 85, 50, 0.19550000000000001
1656, 87.5, 50, 0.19687500000000002
1657, 90, 50, 0.19800000000000004
1658, 92.5, 50, 0.19887500000000002
1659, 95, 50, 0.19950000000000001
1660, 97.5, 50, 0.199875
1661, 100, 50, 0.20000000000000001
1662, 102.5, 50, 0.199875
1663, 105, 50, 0.19950000000000001
1664, 107.5, 50, 0.198875
1665, 110, 50, 0.19800000000000001
1666, 112.5, 50, 0.19687499999999999
1667, 115, 50, 0.19550000000000001
1668, 117.5, 50, 0.19387499999999999
1669, 120, 50, 0.192
1670, 122.5, 50, 0.18987499999999999
1671, 125, 50, 0.1875
1672, 127.5, 50, 0.18487500000000004
1673, 130, 50, 0.182
1674, 132.5, 50, 0.17887500000000003
1675, 135, 50, 0.17549999999999999
1676, 137.5, 50, 0.171875
1677, 140, 50, 0.16800000000000001
1678, 142.5, 50, 0.16387499999999999
1679, 145, 50, 0.1595
1680, 147.5, 50, 0.15487499999999998
1681, 150, 50, 0.15000000000000002
1682, 152.5, 50, 0.14487500000000003
1683, 155, 50, 0.13950000000000001
1684, 157.5, 50, 0.13387500000000002
1685, 160, 50, 0.128
1686, 162.5, 50, 0.12187500000000001
1687, 165, 50, 0.11550000000000003
1688, 167.5, 50, 0.10887499999999999
1689, 170, 50, 0.10200000000000002
1690, 172.5, 50, 0.094874999999999973
1691, 175, 50, 0.087500000000000008
1692, 177.5, 50, 0.079875000000000029
1693, 180, 50, 0.071999999999999995
1694, 182.5, 50, 0.063875000000000015
1695, 185, 50, 0.055499999999999973
1696, 187.5, 50, 0.046875
1697, 190, 50, 0.038000000000000034
1698, 192.5, 50, 0.028874999999999984
1699, 195, 50, 0.019500000000000017
1700, 197.5, 50, 0.0098749999999999654
1701, 200, 50, 0
1702, 0, 52.5, 0
1703, 2.5, 52.5, 0.0098503125000000032
1704, 5, 52.5, 0.019451250000000003
1705, 7.5, 52.5, 0.028802812499999997
1706, 10, 52.5, 0.037905000000000001
1707, 12.5, 52.5, 0.046757812500000002
1708, 15, 52.5, 0.055361250000000001
1709, 17.5, 52.5, 0.063715312499999996
1710, 20, 52.5, 0.071820000000000023
1711, 22.5, 52.5, 0.079675312499999998
1712, 25, 52.5, 0.087281250000000005
1713, 27.5, 52.5, 0.094637812500000015
1714, 30, 52.5, 0.101745
1715, 32.5, 52.5, 0.10860281250000002
1716, 35, 52.5, 0.11521124999999997
1717, 37.5, 52.5, 0.12157031250000001
1718, 40, 52.5, 0.12768000000000004
1719, 42.5, 52.5, 0.13354031249999998
1720, 45, 52.5, 0.13915125
1721, 47.5, 52.5, 0.1445128125
1722, 50, 52.5, 0.14962500000000001
1723, 52.5, 52.5, 0.15448781249999999
1724, 55, 52.5, 0.15910125
1725, 57.5, 52.5, 0.16346531249999999
1726, 60, 52.5, 0.16758000000000001
1727, 62.5, 52.5, 0.1714453125
1728, 65, 52.5, 0.17506125
1729, 67.5, 52.5, 0.1784278125
1730, 70, 52.5, 0.18154499999999998
1731, 72.5, 52.5, 0.18441281249999997
1732, 75, 52.5, 0.18703125000000004
1733, 77.5, 52.5, 0.18940031250000006
1734, 80, 52.5, 0.19152000000000002
1735, 82.5, 52.5, 0.19339031250000002
1736, 85, 52.5, 0.19501125
1737, 87.5, 52.5, 0.19638281250000003
1738, 90, 52.5, 0.19750500000000004
1739, 92.5, 52.5, 0.19837781250000003
1740, 95, 52.5, 0.19900125000000002
1741, 97.5, 52.5, 0.19937531249999998
1742, 100, 52.5, 0.19950000000000001
1743, 102.5, 52.5, 0.19937531249999998
1744, 105, 52.5, 0.19900125000000002
1745, 107.5, 52.5, 0.1983778125
1746, 110, 52.5, 0.19750500000000001
1747, 112.5, 52.5, 0.1963828125
1748, 115, 52.5, 0.19501125
1749, 117.5, 52.5, 0.19339031249999999
1750, 120, 52.5, 0.19152
1751, 122.5, 52.5, 0.18940031249999997
1752, 125, 52.5, 0.18703125000000001
1753, 127.5, 52.5, 0.18441281250000005
1754, 130, 52.5, 0.18154499999999998
1755, 132.5, 52.5, 0.17842781250000003
1756, 135, 52.5, 0.17506124999999997
1757, 137.5, 52.5, 0.1714453125
1758, 140, 52.5, 0.16758000000000001
1759, 142.5, 52.5, 0.16346531249999999
1760, 145, 52.5, 0.15910125
1761, 147.5, 52.5, 0.15448781249999996
1762, 150, 52.5, 0.14962500000000001
1763, 152.5, 52.5, 0.14451281250000003
1764, 155, 52.5, 0.13915125
1765, 157.5, 52.5, 0.13354031250000001
1766, 160, 52.5, 0.12768000000000002
1767, 162.5, 52.5, 0.12157031250000001
1768, 165, 52.5, 0.11521125000000003
1769, 167.5, 52.5, 0.10860281249999998
1770, 170, 52.5, 0.10174500000000002
1771, 172.5, 52.5, 0.094637812499999974
1772, 175, 52.5, 0.087281250000000005
1773, 177.5, 52.5, 0.079675312500000026
1774, 180, 52.5, 0.071819999999999995
1775, 182.5, 52.5, 0.063715312500000024
1776, 185, 52.5, 0.055361249999999973
1777, 187.5, 52.5, 0.046757812500000002
1778, 190, 52.5, 0.037905000000000036
1779, 192.5, 52.5, 0.028802812499999983
1780, 195, 52.5, 0.019451250000000017
1781, 197.5, 52.5, 0.0098503124999999667
1782, 200, 52.5, 0
1783, 0, 55, 0
1784, 2.5, 55, 0.009776250000000002
1785, 5, 55, 0.019305000000000003
1786, 7.5, 55, 0.028586249999999997
1787, 10, 55, 0.037620000000000008
1788, 12.5, 55, 0.046406249999999996
1789, 15, 55, 0.054945000000000001
1790, 17.5, 55, 0.06323624999999998
1791, 20, 55, 0.071280000000000024
1792, 22.5, 55, 0.079076250000000001
1793, 25, 55, 0.086625000000000008
1794, 27.5, 55, 0.093926250000000017
1795, 30, 55, 0.10098
1796, 32.5, 55, 0.10778625000000001
1797, 35, 55, 0.11434499999999999
1798, 37.5, 55, 0.12065625000000002
1799, 40, 55, 0.12672000000000003
1800, 42.5, 55, 0.13253624999999999
1801, 45, 55, 0.13810500000000001
1802, 47.5, 55, 0.14342625000000001
1803, 50, 55, 0.14850000000000002
1804, 52.5, 55, 0.15332625
1805, 55, 55, 0.15790500000000002
1806, 57.5, 55, 0.16223625
1807, 60, 55, 0.16631999999999997
1808, 62.5, 55, 0.17015625000000001
1809, 65, 55, 0.17374500000000001
1810, 67.5, 55, 0.17708625
1811, 70, 55, 0.18018000000000001
1812, 72.5, 55, 0.18302624999999997
1813, 75, 55, 0.18562500000000001
1814, 77.5, 55, 0.18797625000000004
1815, 80, 55, 0.19008000000000003
1816, 82.5, 55, 0.19193625000000003
1817, 85, 55, 0.19354499999999999
1818, 87.5, 55, 0.19490625000000003
1819, 90, 55, 0.19602000000000003
1820, 92.5, 55, 0.19688625000000004
1821, 95, 55, 0.19750500000000001
1822, 97.5, 55, 0.19787625
1823, 100, 55, 0.19800000000000001
1824, 102.5, 55, 0.19787625
1825, 105, 55, 0.19750500000000001
1826, 107.5, 55, 0.19688625000000001
1827, 110, 55, 0.19602
1828, 112.5, 55, 0.19490625
1829, 115, 55, 0.19354499999999999
1830, 117.5, 55, 0.19193625
1831, 120, 55, 0.19008
1832, 122.5, 55, 0.18797624999999998
1833, 125, 55, 0.18562499999999998
1834, 127.5, 55, 0.18302625000000003
1835, 130, 55, 0.18018000000000001
1836, 132.5, 55, 0.17708625000000003
1837, 135, 55, 0.17374499999999998
1838, 137.5, 55, 0.17015625000000001
1839, 140, 55, 0.16632
1840, 142.5, 55, 0.16223625
1841, 145, 55, 0.15790500000000002
1842, 147.5, 55, 0.15332625
1843, 150, 55, 0.14850000000000002
1844, 152.5, 55, 0.14342625000000003
1845, 155, 55, 0.13810500000000001
1846, 157.5, 55, 0.13253625000000002
1847, 160, 55, 0.12672
1848, 162.5, 55, 0.12065625000000002
1849, 165, 55, 0.11434500000000003
1850, 167.5, 55, 0.10778624999999999
1851, 170, 55, 0.10098000000000003
1852, 172.5, 55, 0.093926249999999975
1853, 175, 55, 0.086625000000000008
1854, 177.5, 55, 0.079076250000000028
1855, 180, 55, 0.071279999999999996
1856, 182.5, 55, 0.063236250000000008
1857, 185, 55, 0.054944999999999973
1858, 187.5, 55, 0.046406249999999996
1859, 190, 55, 0.037620000000000028
1860, 192.5, 55, 0.028586249999999983
1861, 195, 55, 0.019305000000000017
1862, 197.5, 55, 0.0097762499999999655
1863, 200, 55, 0
1864, 0, 57.5, 0
1865, 2.5, 57.5, 0.0096528125000000017
1866, 5, 57.5, 0.019061250000000005
1867, 7.5, 57.5, 0.028225312499999995
1868, 10, 57.5, 0.037145000000000004
1869, 12.5, 57.5, 0.045820312500000002
1870, 15, 57.5, 0.054251250000000001
1871, 17.5, 57.5, 0.062437812499999981
1872, 20, 57.5, 0.070380000000000012
1873, 22.5, 57.5, 0.07807781250000001
1874, 25, 57.5, 0.085531250000000017
1875, 27.5, 57.5, 0.092740312500000005
1876, 30, 57.5, 0.099705000000000002
1877, 32.5, 57.5, 0.10642531250000002
1878, 35, 57.5, 0.11290124999999998
1879, 37.5, 57.5, 0.11913281250000002
1880, 40, 57.5, 0.12512000000000004
1881, 42.5, 57.5, 0.13086281250000001
1882, 45, 57.5, 0.13636125000000002
1883, 47.5, 57.5, 0.14161531250000001
1884, 50, 57.5, 0.14662500000000003
1885, 52.5, 57.5, 0.15139031250000001
1886, 55, 57.5, 0.15591125
1887, 57.5, 57.5, 0.1601878125
1888, 60, 57.5, 0.16421999999999998
1889, 62.5, 57.5, 0.16800781249999999
1890, 65, 57.5, 0.17155125000000002
1891, 67.5, 57.5, 0.17485031249999999
1892, 70, 57.5, 0.17790500000000001
1893, 72.5, 57.5, 0.1807153125
1894, 75, 57.5, 0.18328125000000003
1895, 77.5, 57.5, 0.18560281250000005
1896, 80, 57.5, 0.18768000000000004
1897, 82.5, 57.5, 0.18951281250000002
1898, 85, 57.5, 0.19110125000000003
1899, 87.5, 57.5, 0.19244531250000002
1900, 90, 57.5, 0.19354500000000002
1901, 92.5, 57.5, 0.19440031250000003
1902, 95, 57.5, 0.19501125000000002
1903, 97.5, 57.5, 0.1953778125
1904, 100, 57.5, 0.19550000000000001
1905, 102.5, 57.5, 0.1953778125
1906, 105, 57.5, 0.19501125000000002
1907, 107.5, 57.5, 0.19440031250000001
1908, 110, 57.5, 0.19354499999999999
1909, 112.5, 57.5, 0.19244531249999999
1910, 115, 57.5, 0.19110125000000003
1911, 117.5, 57.5, 0.18951281249999999
1912, 120, 57.5, 0.18768000000000001
1913, 122.5, 57.5, 0.18560281249999999
1914, 125, 57.5, 0.18328125000000001
1915, 127.5, 57.5, 0.18071531250000003
1916, 130, 57.5, 0.17790500000000001
1917, 132.5, 57.5, 0.17485031250000005
1918, 135, 57.5, 0.17155124999999999
1919, 137.5, 57.5, 0.16800781249999999
1920, 140, 57.5, 0.16422000000000003
1921, 142.5, 57.5, 0.1601878125
1922, 145, 57.5, 0.15591125
1923, 147.5, 57.5, 0.15139031249999998
1924, 150, 57.5, 0.14662500000000003
1925, 152.5, 57.5, 0.14161531250000003
1926, 155, 57.5, 0.13636125000000002
1927, 157.5, 57.5, 0.13086281250000004
1928, 160, 57.5, 0.12512000000000001
1929, 162.5, 57.5, 0.11913281250000002
1930, 165, 57.5, 0.11290125000000004
1931, 167.5, 57.5, 0.10642531249999998
1932, 170, 57.5, 0.09970500000000003
1933, 172.5, 57.5, 0.092740312499999977
1934, 175, 57.5, 0.085531250000000017
1935, 177.5, 57.5, 0.078077812500000038
1936, 180, 57.5, 0.070379999999999998
1937, 182.5, 57.5, 0.062437812500000016
1938, 185, 57.5, 0.054251249999999973
1939, 187.5, 57.5, 0.045820312500000002
1940, 190, 57.5, 0.037145000000000039
1941, 192.5, 57.5, 0.028225312499999985
1942, 195, 57.5, 0.019061250000000016
1943, 197.5, 57.5, 0.009652812499999967
1944, 200, 57.5, 0
1945, 0, 60, 0
1946, 2.5, 60, 0.0094800000000000023
1947, 5, 60, 0.018720000000000004
1948, 7.5, 60, 0.027719999999999995
1949, 10, 60, 0.036480000000000005
1950, 12.5, 60, 0.044999999999999998
1951, 15, 60, 0.053279999999999994
1952, 17.5, 60, 0.061319999999999986
1953, 20, 60, 0.069120000000000015
1954, 22.5, 60, 0.076680000000000012
1955, 25, 60, 0.084000000000000019
1956, 27.5, 60, 0.091080000000000008
1957, 30, 60, 0.097919999999999993
1958, 32.5, 60, 0.10452000000000002
1959, 35, 60, 0.11087999999999998
1960, 37.5, 60, 0.11700000000000002
1961, 40, 60, 0.12288000000000004
1962, 42.5, 60, 0.12852
1963, 45, 60, 0.13392000000000001
1964, 47.5, 60, 0.13908000000000001
1965, 50, 60, 0.14400000000000002
1966, 52.5, 60, 0.14868000000000001
1967, 55, 60, 0.15312000000000001
1968, 57.5, 60, 0.15732000000000002
1969, 60, 60, 0.16127999999999998
1970, 62.5, 60, 0.16500000000000001
1971, 65, 60, 0.16848000000000002
1972, 67.5, 60, 0.17172000000000001
1973, 70, 60, 0.17471999999999999
1974, 72.5, 60, 0.17747999999999997
1975, 75, 60, 0.18000000000000005
1976, 77.5, 60, 0.18228000000000005
1977, 80, 60, 0.18432000000000004
1978, 82.5, 60, 0.18612000000000004
1979, 85, 60, 0.18768000000000001
1980, 87.5, 60, 0.18900000000000003
1981, 90, 60, 0.19008000000000003
1982, 92.5, 60, 0.19092000000000003
1983, 95, 60, 0.19152000000000002
1984, 97.5, 60, 0.19188
1985, 100, 60, 0.192
1986, 102.5, 60, 0.19188
1987, 105, 60, 0.19152000000000002
1988, 107.5, 60, 0.19091999999999998
1989, 110, 60, 0.19008000000000003
1990, 112.5, 60, 0.189
1991, 115, 60, 0.18768000000000001
1992, 117.5, 60, 0.18611999999999998
1993, 120, 60, 0.18432000000000001
1994, 122.5, 60, 0.18228
1995, 125, 60, 0.17999999999999999
1996, 127.5, 60, 0.17748000000000005
1997, 130, 60, 0.17471999999999999
1998, 132.5, 60, 0.17172000000000004
1999, 135, 60, 0.16847999999999999
2000, 137.5, 60, 0.16500000000000001
2001, 140, 60, 0.16128000000000001
2002, 142.5, 60, 0.15732000000000002
2003, 145, 60, 0.15312000000000001
2004, 147.5, 60, 0.14868000000000001
2005, 150, 60, 0.14400000000000002
2006, 152.5, 60, 0.13908000000000004
2007, 155, 60, 0.13392000000000001
2008, 157.5, 60, 0.12852000000000002
2009, 160, 60, 0.12287999999999999
2010, 162.5, 60, 0.11700000000000002
2011, 165, 60, 0.11088000000000003
2012, 167.5, 60, 0.10452
2013, 170, 60, 0.097920000000000021
2014, 172.5, 60, 0.09107999999999998
2015, 175, 60, 0.084000000000000019
2016, 177.5, 60, 0.076680000000000026
2017, 180, 60, 0.069120000000000001
2018, 182.5, 60, 0.061320000000000013
2019, 185, 60, 0.053279999999999973
2020, 187.5, 60, 0.044999999999999998
2021, 190, 60, 0.036480000000000033
2022, 192.5, 60, 0.027719999999999984
2023, 195, 60, 0.018720000000000018
2024, 197.5, 60, 0.0094799999999999676
2025, 200, 60, 0
2026, 0, 62.5, 0
2027, 2.5, 62.5, 0.0092578125000000022
2028, 5, 62.5, 0.018281250000000002
2029, 7.5, 62.5, 0.027070312499999995
2030, 10, 62.5, 0.035625000000000004
2031, 12.5, 62.5, 0.0439453125
2032, 15, 62.5, 0.052031250000000001
2033, 17.5, 62.5, 0.059882812499999993
2034, 20, 62.5, 0.067500000000000018
2035, 22.5, 62.5, 0.074882812500000007
2036, 25, 62.5, 0.082031250000000014
2037, 27.5, 62.5, 0.088945312500000012
2038, 30, 62.5, 0.095625000000000002
2039, 32.5, 62.5, 0.10207031250000001
2040, 35, 62.5, 0.10828124999999998
2041, 37.5, 62.5, 0.1142578125
2042, 40, 62.5, 0.12000000000000002
2043, 42.5, 62.5, 0.12550781249999998
2044, 45, 62.5, 0.13078125000000002
2045, 47.5, 62.5, 0.13582031249999998
2046, 50, 62.5, 0.14062500000000003
2047, 52.5, 62.5, 0.14519531250000001
2048, 55, 62.5, 0.14953125
2049, 57.5, 62.5, 0.15363281249999999
2050, 60, 62.5, 0.15749999999999997
2051, 62.5, 62.5, 0.1611328125
2052, 65, 62.5, 0.16453125000000002
2053, 67.5, 62.5, 0.1676953125
2054, 70, 62.5, 0.17062499999999997
2055, 72.5, 62.5, 0.17332031249999999
2056, 75, 62.5, 0.17578125000000003
2057, 77.5, 62.5, 0.17800781250000003
2058, 80, 62.5, 0.18000000000000005
2059, 82.5, 62.5, 0.1817578125
2060, 85, 62.5, 0.18328125000000001
2061, 87.5, 62.5, 0.18457031250000003
2062, 90, 62.5, 0.18562500000000004
2063, 92.5, 62.5, 0.18644531250000002
2064, 95, 62.5, 0.18703125000000001
2065, 97.5, 62.5, 0.1873828125
2066, 100, 62.5, 0.1875
2067, 102.5, 62.5, 0.1873828125
2068, 105, 62.5, 0.18703125000000001
2069, 107.5, 62.5, 0.18644531250000002
2070, 110, 62.5, 0.18562499999999998
2071, 112.5, 62.5, 0.1845703125
2072, 115, 62.5, 0.18328125000000001
2073, 117.5, 62.5, 0.1817578125
2074, 120, 62.5, 0.17999999999999999
2075, 122.5, 62.5, 0.1780078125
2076, 125, 62.5, 0.17578125
2077, 127.5, 62.5, 0.17332031250000002
2078, 130, 62.5, 0.17062499999999997
2079, 132.5, 62.5, 0.16769531250000003
2080, 135, 62.5, 0.16453124999999999
2081, 137.5, 62.5, 0.1611328125
2082, 140, 62.5, 0.15750000000000003
2083, 142.5, 62.5, 0.15363281249999999
2084, 145, 62.5, 0.14953125
2085, 147.5, 62.5, 0.14519531249999998
2086, 150, 62.5, 0.14062500000000003
2087, 152.5, 62.5, 0.13582031250000004
2088, 155, 62.5, 0.13078125000000002
2089, 157.5, 62.5, 0.12550781250000001
2090, 160, 62.5, 0.12
2091, 162.5, 62.5, 0.1142578125
2092, 165, 62.5, 0.10828125000000002
2093, 167.5, 62.5, 0.10207031249999998
2094, 170, 62.5, 0.095625000000000016
2095, 172.5, 62.5, 0.088945312499999984
2096, 175, 62.5, 0.082031250000000014
2097, 177.5, 62.5, 0.074882812500000034
2098, 180, 62.5, 0.067500000000000004
2099, 182.5, 62.5, 0.059882812500000014
2100, 185, 62.5, 0.052031249999999973
2101, 187.5, 62.5, 0.0439453125
2102, 190, 62.5, 0.035625000000000032
2103, 192.5, 62.5, 0.027070312499999985
2104, 195, 62.5, 0.018281250000000016
2105, 197.5, 62.5, 0.0092578124999999675
2106, 200, 62.5, 0
2107, 0, 65, 0
2108, 2.5, 65, 0.0089862500000000012
2109, 5, 65, 0.017745
2110, 7.5, 65, 0.026276250000000001
2111, 10, 65, 0.03458
2112, 12.5, 65, 0.04265625
2113, 15, 65, 0.050505000000000001
2114, 17.5, 65, 0.058126249999999983
2115, 20, 65, 0.065520000000000023
2116, 22.5, 65, 0.072686249999999994
2117, 25, 65, 0.079625000000000001
2118, 27.5, 65, 0.086336250000000017
2119, 30, 65, 0.092819999999999986
2120, 32.5, 65, 0.099076250000000005
2121, 35, 65, 0.10510499999999998
2122, 37.5, 65, 0.11090625
2123, 40, 65, 0.11648000000000003
2124, 42.5, 65, 0.12182625
2125, 45, 65, 0.126945
2126, 47.5, 65, 0.13183625000000002
2127, 50, 65, 0.13650000000000001
2128, 52.5, 65, 0.14093625000000001
2129, 55, 65, 0.145145
2130, 57.5, 65, 0.14912624999999999
2131, 60, 65, 0.15287999999999999
2132, 62.5, 65, 0.15640625
2133, 65, 65, 0.15970500000000001
2134, 67.5, 65, 0.16277624999999998
2135, 70, 65, 0.16561999999999999
2136, 72.5, 65, 0.16823624999999998
2137, 75, 65, 0.17062500000000003
2138, 77.5, 65, 0.17278625000000003
2139, 80, 65, 0.17472000000000001
2140, 82.5, 65, 0.17642625000000001
2141, 85, 65, 0.17790500000000001
2142, 87.5, 65, 0.17915625000000002
2143, 90, 65, 0.18018000000000003
2144, 92.5, 65, 0.18097625000000001
2145, 95, 65, 0.18154500000000001
2146, 97.5, 65, 0.18188625
2147, 100, 65, 0.182
2148, 102.5, 65, 0.18188625
2149, 105, 65, 0.18154500000000001
2150, 107.5, 65, 0.18097625000000001
2151, 110, 65, 0.18018000000000001
2152, 112.5, 65, 0.17915624999999999
2153, 115, 65, 0.17790500000000001
2154, 117.5, 65, 0.17642625000000001
2155, 120, 65, 0.17472000000000001
2156, 122.5, 65, 0.17278624999999997
2157, 125, 65, 0.170625
2158, 127.5, 65, 0.16823625000000003
2159, 130, 65, 0.16561999999999999
2160, 132.5, 65, 0.16277625000000004
2161, 135, 65, 0.15970499999999999
2162, 137.5, 65, 0.15640625
2163, 140, 65, 0.15287999999999999
2164, 142.5, 65, 0.14912624999999999
2165, 145, 65, 0.145145
2166, 147.5, 65, 0.14093624999999999
2167, 150, 65, 0.13650000000000001
2168, 152.5, 65, 0.13183625000000002
2169, 155, 65, 0.126945
2170, 157.5, 65, 0.12182625000000002
2171, 160, 65, 0.11648
2172, 162.5, 65, 0.11090625
2173, 165, 65, 0.10510500000000003
2174, 167.5, 65, 0.099076249999999977
2175, 170, 65, 0.092820000000000014
2176, 172.5, 65, 0.086336249999999976
2177, 175, 65, 0.079625000000000001
2178, 177.5, 65, 0.072686250000000022
2179, 180, 65, 0.065519999999999995
2180, 182.5, 65, 0.058126250000000018
2181, 185, 65, 0.050504999999999974
2182, 187.5, 65, 0.04265625
2183, 190, 65, 0.034580000000000034
2184, 192.5, 65, 0.026276249999999984
2185, 195, 65, 0.017745000000000014
2186, 197.5, 65, 0.0089862499999999682
2187, 200, 65, 0
2188, 0, 67.5, 0
2189, 2.5, 67.5, 0.0086653125000000011
2190, 5, 67.5, 0.017111250000000001
2191, 7.5, 67.5, 0.025337812499999997
2192, 10, 67.5, 0.033345000000000007
2193, 12.5, 67.5, 0.041132812500000004
2194, 15, 67.5, 0.048701249999999995
2195, 17.5, 67.5, 0.056050312499999991
2196, 20, 67.5, 0.063180000000000014
2197, 22.5, 67.5, 0.070090312499999988
2198, 25, 67.5, 0.076781250000000009
2199, 27.5, 67.5, 0.083252812500000009
2200, 30, 67.5, 0.089504999999999987
2201, 32.5, 67.5, 0.095537812500000013
2202, 35, 67.5, 0.10135124999999998
2203, 37.5, 67.5, 0.1069453125
2204, 40, 67.5, 0.11232000000000003
2205, 42.5, 67.5, 0.11747531249999998
2206, 45, 67.5, 0.12241125
2207, 47.5, 67.5, 0.12712781249999999
2208, 50, 67.5, 0.13162500000000002
2209, 52.5, 67.5, 0.1359028125
2210, 55, 67.5, 0.13996124999999998
2211, 57.5, 67.5, 0.1438003125
2212, 60, 67.5, 0.14741999999999997
2213, 62.5, 67.5, 0.1508203125
2214, 65, 67.5, 0.15400125000000001
2215, 67.5, 67.5, 0.15696281249999999
2216, 70, 67.5, 0.15970499999999999
2217, 72.5, 67.5, 0.16222781249999998
2218, 75, 67.5, 0.16453125000000002
2219, 77.5, 67.5, 0.16661531250000003
2220, 80, 67.5, 0.16847999999999999
2221, 82.5, 67.5, 0.17012531249999999
2222, 85, 67.5, 0.17155124999999999
2223, 87.5, 67.5, 0.1727578125
2224, 90, 67.5, 0.17374500000000004
2225, 92.5, 67.5, 0.1745128125
2226, 95, 67.5, 0.17506125
2227, 97.5, 67.5, 0.17539031249999998
2228, 100, 67.5, 0.17549999999999999
2229, 102.5, 67.5, 0.17539031249999998
2230, 105, 67.5, 0.17506125
2231, 107.5, 67.5, 0.17451281249999998
2232, 110, 67.5, 0.17374500000000001
2233, 112.5, 67.5, 0.1727578125
2234, 115, 67.5, 0.17155124999999999
2235, 117.5, 67.5, 0.17012531249999999
2236, 120, 67.5, 0.16847999999999999
2237, 122.5, 67.5, 0.16661531249999997
2238, 125, 67.5, 0.16453125000000002
2239, 127.5, 67.5, 0.16222781250000001
2240, 130, 67.5, 0.15970499999999999
2241, 132.5, 67.5, 0.15696281250000002
2242, 135, 67.5, 0.15400124999999998
2243, 137.5, 67.5, 0.1508203125
2244, 140, 67.5, 0.14742
2245, 142.5, 67.5, 0.1438003125
2246, 145, 67.5, 0.13996124999999998
2247, 147.5, 67.5, 0.13590281249999997
2248, 150, 67.5, 0.13162500000000002
2249, 152.5, 67.5, 0.12712781250000002
2250, 155, 67.5, 0.12241125
2251, 157.5, 67.5, 0.11747531250000001
2252, 160, 67.5, 0.11231999999999999
2253, 162.5, 67.5, 0.1069453125
2254, 165, 67.5, 0.10135125000000003
2255, 167.5, 67.5, 0.095537812499999972
2256, 170, 67.5, 0.089505000000000015
2257, 172.5, 67.5, 0.083252812499999981
2258, 175, 67.5, 0.076781250000000009
2259, 177.5, 67.5, 0.070090312500000015
2260, 180, 67.5, 0.063179999999999986
2261, 182.5, 67.5, 0.056050312500000005
2262, 185, 67.5, 0.048701249999999967
2263, 187.5, 67.5, 0.041132812500000004
2264, 190, 67.5, 0.033345000000000027
2265, 192.5, 67.5, 0.025337812499999984
2266, 195, 67.5, 0.017111250000000015
2267, 197.5, 67.5, 0.0086653124999999699
2268, 200, 67.5, 0
2269, 0, 70, 0
2270, 2.5, 70, 0.008295000000000002
2271, 5, 70, 0.016380000000000006
2272, 7.5, 70, 0.024255000000000002
2273, 10, 70, 0.031920000000000004
2274, 12.5, 70, 0.039375
2275, 15, 70, 0.046620000000000002
2276, 17.5, 70, 0.053654999999999994
2277, 20, 70, 0.060480000000000027
2278, 22.5, 70, 0.067095000000000002
2279, 25, 70, 0.07350000000000001
2280, 27.5, 70, 0.079695000000000016
2281, 30, 70, 0.085680000000000006
2282, 32.5, 70, 0.091455000000000022
2283, 35, 70, 0.097019999999999981
2284, 37.5, 70, 0.10237500000000001
2285, 40, 70, 0.10752000000000003
2286, 42.5, 70, 0.112455
2287, 45, 70, 0.11718000000000002
2288, 47.5, 70, 0.12169500000000003
2289, 50, 70, 0.12600000000000003
2290, 52.5, 70, 0.13009500000000002
2291, 55, 70, 0.13398000000000002
2292, 57.5, 70, 0.137655
2293, 60, 70, 0.14112
2294, 62.5, 70, 0.144375
2295, 65, 70, 0.14742000000000002
2296, 67.5, 70, 0.15025500000000003
2297, 70, 70, 0.15288000000000002
2298, 72.5, 70, 0.15529500000000002
2299, 75, 70, 0.15750000000000003
2300, 77.5, 70, 0.15949500000000005
2301, 80, 70, 0.16128000000000003
2302, 82.5, 70, 0.16285500000000003
2303, 85, 70, 0.16422000000000003
2304, 87.5, 70, 0.16537500000000002
2305, 90, 70, 0.16632000000000005
2306, 92.5, 70, 0.16705500000000004
2307, 95, 70, 0.16758000000000001
2308, 97.5, 70, 0.16789500000000002
2309, 100, 70, 0.16800000000000001
2310, 102.5, 70, 0.16789500000000002
2311, 105, 70, 0.16758000000000001
2312, 107.5, 70, 0.16705500000000001
2313, 110, 70, 0.16632000000000002
2314, 112.5, 70, 0.16537499999999999
2315, 115, 70, 0.16422000000000003
2316, 117.5, 70, 0.162855
2317, 120, 70, 0.16128000000000001
2318, 122.5, 70, 0.159495
2319, 125, 70, 0.1575
2320, 127.5, 70, 0.15529500000000004
2321, 130, 70, 0.15288000000000002
2322, 132.5, 70, 0.15025500000000003
2323, 135, 70, 0.14742
2324, 137.5, 70, 0.144375
2325, 140, 70, 0.14112000000000002
2326, 142.5, 70, 0.137655
2327, 145, 70, 0.13398000000000002
2328, 147.5, 70, 0.13009499999999999
2329, 150, 70, 0.12600000000000003
2330, 152.5, 70, 0.12169500000000004
2331, 155, 70, 0.11718000000000002
2332, 157.5, 70, 0.11245500000000003
2333, 160, 70, 0.10752000000000002
2334, 162.5, 70, 0.10237500000000001
2335, 165, 70, 0.097020000000000037
2336, 167.5, 70, 0.091454999999999995
2337, 170, 70, 0.08568000000000002
2338, 172.5, 70, 0.079694999999999974
2339, 175, 70, 0.07350000000000001
2340, 177.5, 70, 0.06709500000000003
2341, 180, 70, 0.060479999999999999
2342, 182.5, 70, 0.053655000000000022
2343, 185, 70, 0.046619999999999988
2344, 187.5, 70, 0.039375
2345, 190, 70, 0.031920000000000032
2346, 192.5, 70, 0.024254999999999988
2347, 195, 70, 0.016380000000000016
2348, 197.5, 70, 0.0082949999999999708
2349, 200, 70, 0
2350, 0, 72.5, 0
2351, 2.5, 72.5, 0.0078753125000000021
2352, 5, 72.5, 0.015551250000000004
2353, 7.5, 72.5, 0.023027812500000001
2354, 10, 72.5, 0.030305000000000009
2355, 12.5, 72.5, 0.037382812500000001
2356, 15, 72.5, 0.044261250000000009
2357, 17.5, 72.5, 0.050940312499999987
2358, 20, 72.5, 0.057420000000000027
2359, 22.5, 72.5, 0.063700312500000009
2360, 25, 72.5, 0.069781250000000017
2361, 27.5, 72.5, 0.07566281250000001
2362, 30, 72.5, 0.081344999999999987
2363, 32.5, 72.5, 0.086827812500000004
2364, 35, 72.5, 0.092111249999999978
2365, 37.5, 72.5, 0.097195312500000006
2366, 40, 72.5, 0.10208000000000003
2367, 42.5, 72.5, 0.1067653125
2368, 45, 72.5, 0.11125125000000001
2369, 47.5, 72.5, 0.1155378125
2370, 50, 72.5, 0.11962500000000002
2371, 52.5, 72.5, 0.12351281250000001
2372, 55, 72.5, 0.12720125000000002
2373, 57.5, 72.5, 0.13069031250000002
2374, 60, 72.5, 0.13397999999999999
2375, 62.5, 72.5, 0.13707031250000001
2376, 65, 72.5, 0.13996125000000001
2377, 67.5, 72.5, 0.1426528125
2378, 70, 72.5, 0.145145
2379, 72.5, 72.5, 0.14743781249999999
2380, 75, 72.5, 0.14953125000000003
2381, 77.5, 72.5, 0.15142531250000005
2382, 80, 72.5, 0.15312000000000003
2383, 82.5, 72.5, 0.15461531250000002
2384, 85, 72.5, 0.15591125
2385, 87.5, 72.5, 0.15700781250000004
2386, 90, 72.5, 0.15790500000000002
2387, 92.5, 72.5, 0.15860281250000002
2388, 95, 72.5, 0.15910125000000003
2389, 97.5, 72.5, 0.15940031250000003
2390, 100, 72.5, 0.1595
2391, 102.5, 72.5, 0.15940031250000003
2392, 105, 72.5, 0.15910125000000003
2393, 107.5, 72.5, 0.15860281250000002
2394, 110, 72.5, 0.15790500000000002
2395, 112.5, 72.5, 0.15700781250000001
2396, 115, 72.5, 0.15591125
2397, 117.5, 72.5, 0.15461531249999999
2398, 120, 72.5, 0.15312000000000001
2399, 122.5, 72.5, 0.15142531250000002
2400, 125, 72.5, 0.14953125
2401, 127.5, 72.5, 0.14743781250000002
2402, 130, 72.5, 0.145145
2403, 132.5, 72.5, 0.14265281250000003
2404, 135, 72.5, 0.13996124999999998
2405, 137.5, 72.5, 0.13707031250000001
2406, 140, 72.5, 0.13398000000000002
2407, 142.5, 72.5, 0.13069031250000002
2408, 145, 72.5, 0.12720125000000002
2409, 147.5, 72.5, 0.1235128125
2410, 150, 72.5, 0.11962500000000002
2411, 152.5, 72.5, 0.11553781250000002
2412, 155, 72.5, 0.11125125000000001
2413, 157.5, 72.5, 0.10676531250000003
2414, 160, 72.5, 0.10208
2415, 162.5, 72.5, 0.097195312500000006
2416, 165, 72.5, 0.092111250000000033
2417, 167.5, 72.5, 0.08682781249999999
2418, 170, 72.5, 0.081345000000000028
2419, 172.5, 72.5, 0.075662812499999982
2420, 175, 72.5, 0.069781250000000017
2421, 177.5, 72.5, 0.063700312500000023
2422, 180, 72.5, 0.057419999999999999
2423, 182.5, 72.5, 0.050940312500000008
2424, 185, 72.5, 0.044261249999999981
2425, 187.5, 72.5, 0.037382812500000001
2426, 190, 72.5, 0.030305000000000026
2427, 192.5, 72.5, 0.023027812499999988
2428, 195, 72.5, 0.015551250000000015
2429, 197.5, 72.5, 0.0078753124999999726
2430, 200, 72.5, 0
2431, 0, 75, 0
2432, 2.5, 75, 0.0074062500000000014
2433, 5, 75, 0.014625000000000003
2434, 7.5, 75, 0.021656249999999998
2435, 10, 75, 0.028500000000000004
2436, 12.5, 75, 0.03515625
2437, 15, 75, 0.041625000000000002
2438, 17.5, 75, 0.047906249999999991
2439, 20, 75, 0.05400000000000002
2440, 22.5, 75, 0.059906250000000001
2441, 25, 75, 0.065625000000000003
2442, 27.5, 75, 0.071156250000000004
2443, 30, 75, 0.076499999999999999
2444, 32.5, 75, 0.081656250000000014
2445, 35, 75, 0.08662499999999998
2446, 37.5, 75, 0.091406250000000008
2447, 40, 75, 0.09600000000000003
2448, 42.5, 75, 0.10040625
2449, 45, 75, 0.10462500000000001
2450, 47.5, 75, 0.10865625000000001
2451, 50, 75, 0.11250000000000002
2452, 52.5, 75, 0.11615625000000002
2453, 55, 75, 0.11962500000000001
2454, 57.5, 75, 0.12290624999999999
2455, 60, 75, 0.126
2456, 62.5, 75, 0.12890625
2457, 65, 75, 0.13162500000000002
2458, 67.5, 75, 0.13415625
2459, 70, 75, 0.13650000000000001
2460, 72.5, 75, 0.13865624999999998
2461, 75, 75, 0.14062500000000003
2462, 77.5, 75, 0.14240625000000004
2463, 80, 75, 0.14400000000000002
2464, 82.5, 75, 0.14540625000000001
2465, 85, 75, 0.14662500000000001
2466, 87.5, 75, 0.14765625000000002
2467, 90, 75, 0.14850000000000002
2468, 92.5, 75, 0.14915625000000002
2469, 95, 75, 0.14962500000000001
2470, 97.5, 75, 0.14990624999999999
2471, 100, 75, 0.15000000000000002
2472, 102.5, 75, 0.14990624999999999
2473, 105, 75, 0.14962500000000001
2474, 107.5, 75, 0.14915624999999999
2475, 110, 75, 0.14850000000000002
2476, 112.5, 75, 0.14765624999999999
2477, 115, 75, 0.14662500000000001
2478, 117.5, 75, 0.14540624999999999
2479, 120, 75, 0.14400000000000002
2480, 122.5, 75, 0.14240624999999998
2481, 125, 75, 0.140625
2482, 127.5, 75, 0.13865625000000004
2483, 130, 75, 0.13650000000000001
2484, 132.5, 75, 0.13415625000000003
2485, 135, 75, 0.13162499999999999
2486, 137.5, 75, 0.12890625
2487, 140, 75, 0.126
2488, 142.5, 75, 0.12290624999999999
2489, 145, 75, 0.11962500000000001
2490, 147.5, 75, 0.11615624999999999
2491, 150, 75, 0.11250000000000002
2492, 152.5, 75, 0.10865625000000002
2493, 155, 75, 0.10462500000000001
2494, 157.5, 75, 0.10040625000000002
2495, 160, 75, 0.096000000000000002
2496, 162.5, 75, 0.091406250000000008
2497, 165, 75, 0.086625000000000021
2498, 167.5, 75, 0.081656249999999986
2499, 170, 75, 0.076500000000000012
2500, 172.5, 75, 0.071156249999999976
2501, 175, 75, 0.065625000000000003
2502, 177.5, 75, 0.059906250000000022
2503, 180, 75, 0.053999999999999992
2504, 182.5, 75, 0.047906250000000011
2505, 185, 75, 0.041624999999999981
2506, 187.5, 75, 0.03515625
2507, 190, 75, 0.028500000000000025
2508, 192.5, 75, 0.021656249999999988
2509, 195, 75, 0.014625000000000013
2510, 197.5, 75, 0.0074062499999999736
2511, 200, 75, 0
2512, 0, 77.5, 0
2513, 2.5, 77.5, 0.0068878125000000007
2514, 5, 77.5, 0.01360125
2515, 7.5, 77.5, 0.020140312499999997
2516, 10, 77.5, 0.026505000000000001
2517, 12.5, 77.5, 0.032695312499999997
2518, 15, 77.5, 0.038711249999999996
2519, 17.5, 77.5, 0.04455281249999999
2520, 20, 77.5, 0.050220000000000008
2521, 22.5, 77.5, 0.0557128125
2522, 25, 77.5, 0.061031250000000002
2523, 27.5, 77.5, 0.0661753125
2524, 30, 77.5, 0.071144999999999986
2525, 32.5, 77.5, 0.07594031250000001
2526, 35, 77.5, 0.080561249999999973
2527, 37.5, 77.5, 0.085007812500000002
2528, 40, 77.5, 0.089280000000000012
2529, 42.5, 77.5, 0.09337781249999999
2530, 45, 77.5, 0.097301250000000006
2531, 47.5, 77.5, 0.10105031249999999
2532, 50, 77.5, 0.10462500000000001
2533, 52.5, 77.5, 0.1080253125
2534, 55, 77.5, 0.11125125
2535, 57.5, 77.5, 0.11430281249999999
2536, 60, 77.5, 0.11717999999999998
2537, 62.5, 77.5, 0.11988281249999999
2538, 65, 77.5, 0.12241125
2539, 67.5, 77.5, 0.1247653125
2540, 70, 77.5, 0.126945
2541, 72.5, 77.5, 0.12895031249999997
2542, 75, 77.5, 0.13078125000000002
2543, 77.5, 77.5, 0.13243781250000003
2544, 80, 77.5, 0.13392000000000001
2545, 82.5, 77.5, 0.13522781249999999
2546, 85, 77.5, 0.13636125000000002
2547, 87.5, 77.5, 0.13732031249999999
2548, 90, 77.5, 0.13810500000000001
2549, 92.5, 77.5, 0.13871531250000002
2550, 95, 77.5, 0.13915125
2551, 97.5, 77.5, 0.13941281249999998
2552, 100, 77.5, 0.13950000000000001
2553, 102.5, 77.5, 0.13941281249999998
2554, 105, 77.5, 0.13915125
2555, 107.5, 77.5, 0.13871531249999999
2556, 110, 77.5, 0.13810499999999998
2557, 112.5, 77.5, 0.13732031249999999
2558, 115, 77.5, 0.13636125000000002
2559, 117.5, 77.5, 0.13522781249999999
2560, 120, 77.5, 0.13392000000000001
2561, 122.5, 77.5, 0.13243781249999997
2562, 125, 77.5, 0.13078124999999999
2563, 127.5, 77.5, 0.12895031250000002
2564, 130, 77.5, 0.126945
2565, 132.5, 77.5, 0.1247653125
2566, 135, 77.5, 0.12241125
2567, 137.5, 77.5, 0.11988281249999999
2568, 140, 77.5, 0.11717999999999999
2569, 142.5, 77.5, 0.11430281249999999
2570, 145, 77.5, 0.11125125
2571, 147.5, 77.5, 0.10802531249999997
2572, 150, 77.5, 0.10462500000000001
2573, 152.5, 77.5, 0.10105031250000002
2574, 155, 77.5, 0.097301250000000006
2575, 157.5, 77.5, 0.093377812500000004
2576, 160, 77.5, 0.089279999999999998
2577, 162.5, 77.5, 0.085007812500000002
2578, 165, 77.5, 0.080561250000000015
2579, 167.5, 77.5, 0.075940312499999982
2580, 170, 77.5, 0.071145000000000014
2581, 172.5, 77.5, 0.066175312499999986
2582, 175, 77.5, 0.061031250000000002
2583, 177.5, 77.5, 0.055712812500000014
2584, 180, 77.5, 0.050219999999999994
2585, 182.5, 77.5, 0.044552812500000011
2586, 185, 77.5, 0.038711249999999982
2587, 187.5, 77.5, 0.032695312499999997
2588, 190, 77.5, 0.026505000000000022
2589, 192.5, 77.5, 0.020140312499999986
2590, 195, 77.5, 0.013601250000000011
2591, 197.5, 77.5, 0.0068878124999999756
2592, 200, 77.5, 0
2593, 0, 80, 0
2594, 2.5, 80, 0.006320000000000001
2595, 5, 80, 0.01248
2596, 7.5, 80, 0.018479999999999996
2597, 10, 80, 0.024320000000000001
2598, 12.5, 80, 0.029999999999999999
2599, 15, 80, 0.035519999999999996
2600, 17.5, 80, 0.040879999999999986
2601, 20, 80, 0.046080000000000003
2602, 22.5, 80, 0.051119999999999985
2603, 25, 80, 0.055999999999999994
2604, 27.5, 80, 0.060720000000000003
2605, 30, 80, 0.065279999999999991
2606, 32.5, 80, 0.069679999999999992
2607, 35, 80, 0.073919999999999972
2608, 37.5, 80, 0.078
2609, 40, 80, 0.081920000000000007
2610, 42.5, 80, 0.085679999999999978
2611, 45, 80, 0.089279999999999998
2612, 47.5, 80, 0.092719999999999983
2613, 50, 80, 0.096000000000000002
2614, 52.5, 80, 0.099119999999999986
2615, 55, 80, 0.10207999999999999
2616, 57.5, 80, 0.10487999999999997
2617, 60, 80, 0.10751999999999996
2618, 62.5, 80, 0.10999999999999999
2619, 65, 80, 0.11231999999999999
2620, 67.5, 80, 0.11447999999999998
2621, 70, 80, 0.11647999999999999
2622, 72.5, 80, 0.11831999999999998
2623, 75, 80, 0.12
2624, 77.5, 80, 0.12152
2625, 80, 80, 0.12288
2626, 82.5, 80, 0.12407999999999998
2627, 85, 80, 0.12511999999999998
2628, 87.5, 80, 0.126
2629, 90, 80, 0.12672
2630, 92.5, 80, 0.12727999999999998
2631, 95, 80, 0.12767999999999999
2632, 97.5, 80, 0.12791999999999998
2633, 100, 80, 0.128
2634, 102.5, 80, 0.12791999999999998
2635, 105, 80, 0.12767999999999999
2636, 107.5, 80, 0.12727999999999998
2637, 110, 80, 0.12671999999999997
2638, 112.5, 80, 0.12599999999999997
2639, 115, 80, 0.12511999999999998
2640, 117.5, 80, 0.12407999999999998
2641, 120, 80, 0.12287999999999999
2642, 122.5, 80, 0.12151999999999998
2643, 125, 80, 0.12
2644, 127.5, 80, 0.11831999999999999
2645, 130, 80, 0.11647999999999999
2646, 132.5, 80, 0.11448
2647, 135, 80, 0.11231999999999998
2648, 137.5, 80, 0.10999999999999999
2649, 140, 80, 0.10751999999999999
2650, 142.5, 80, 0.10487999999999997
2651, 145, 80, 0.10207999999999999
2652, 147.5, 80, 0.099119999999999972
2653, 150, 80, 0.096000000000000002
2654, 152.5, 80, 0.092720000000000011
2655, 155, 80, 0.089279999999999998
2656, 157.5, 80, 0.085680000000000006
2657, 160, 80, 0.081919999999999979
2658, 162.5, 80, 0.078
2659, 165, 80, 0.073920000000000013
2660, 167.5, 80, 0.069679999999999978
2661, 170, 80, 0.065280000000000005
2662, 172.5, 80, 0.060719999999999968
2663, 175, 80, 0.055999999999999994
2664, 177.5, 80, 0.051120000000000013
2665, 180, 80, 0.046079999999999989
2666, 182.5, 80, 0.04088
2667, 185, 80, 0.035519999999999975
2668, 187.5, 80, 0.029999999999999999
2669, 190, 80, 0.024320000000000015
2670, 192.5, 80, 0.018479999999999986
2671, 195, 80, 0.012480000000000008
2672, 197.5, 80, 0.0063199999999999767
2673, 200, 80, 0
2674, 0, 82.5, 0
2675, 2.5, 82.5, 0.0057028125000000022
2676, 5, 82.5, 0.011261250000000004
2677, 7.5, 82.5, 0.016675312500000001
2678, 10, 82.5, 0.021945000000000006
2679, 12.5, 82.5, 0.027070312500000002
2680, 15, 82.5, 0.032051250000000003
2681, 17.5, 82.5, 0.036887812499999999
2682, 20, 82.5, 0.04158000000000002
2683, 22.5, 82.5, 0.046127812500000004
2684, 25, 82.5, 0.050531250000000014
2685, 27.5, 82.5, 0.054790312500000014
2686, 30, 82.5, 0.058905000000000006
2687, 32.5, 82.5, 0.062875312500000016
2688, 35, 82.5, 0.066701250000000004
2689, 37.5, 82.5, 0.070382812500000017
2690, 40, 82.5, 0.073920000000000027
2691, 42.5, 82.5, 0.077312812500000008
2692, 45, 82.5, 0.080561250000000029
2693, 47.5, 82.5, 0.083665312500000019
2694, 50, 82.5, 0.086625000000000035
2695, 52.5, 82.5, 0.089440312500000022
2696, 55, 82.5, 0.092111250000000019
2697, 57.5, 82.5, 0.094637812500000015
2698, 60, 82.5, 0.097020000000000009
2699, 62.5, 82.5, 0.099257812500000014
2700, 65, 82.5, 0.10135125000000003
2701, 67.5, 82.5, 0.10330031250000002
2702, 70, 82.5, 0.10510500000000002
2703, 72.5, 82.5, 0.10676531250000001
2704, 75, 82.5, 0.10828125000000004
2705, 77.5, 82.5, 0.10965281250000004
2706, 80, 82.5, 0.11088000000000003
2707, 82.5, 82.5, 0.11196281250000004
2708, 85, 82.5, 0.11290125000000002
2709, 87.5, 82.5, 0.11369531250000005
2710, 90, 82.5, 0.11434500000000004
2711, 92.5, 82.5, 0.11485031250000004
2712, 95, 82.5, 0.11521125000000003
2713, 97.5, 82.5, 0.11542781250000003
2714, 100, 82.5, 0.11550000000000003
2715, 102.5, 82.5, 0.11542781250000003
2716, 105, 82.5, 0.11521125000000003
2717, 107.5, 82.5, 0.11485031250000001
2718, 110, 82.5, 0.11434500000000003
2719, 112.5, 82.5, 0.11369531250000002
2720, 115, 82.5, 0.11290125000000002
2721, 117.5, 82.5, 0.11196281250000002
2722, 120, 82.5, 0.11088000000000002
2723, 122.5, 82.5, 0.10965281250000002
2724, 125, 82.5, 0.10828125000000001
2725, 127.5, 82.5, 0.10676531250000004
2726, 130, 82.5, 0.10510500000000002
2727, 132.5, 82.5, 0.10330031250000003
2728, 135, 82.5, 0.10135125000000002
2729, 137.5, 82.5, 0.099257812500000014
2730, 140, 82.5, 0.097020000000000023
2731, 142.5, 82.5, 0.094637812500000015
2732, 145, 82.5, 0.092111250000000019
2733, 147.5, 82.5, 0.089440312500000008
2734, 150, 82.5, 0.086625000000000035
2735, 152.5, 82.5, 0.083665312500000033
2736, 155, 82.5, 0.080561250000000029
2737, 157.5, 82.5, 0.077312812500000036
2738, 160, 82.5, 0.073920000000000013
2739, 162.5, 82.5, 0.070382812500000017
2740, 165, 82.5, 0.066701250000000031
2741, 167.5, 82.5, 0.062875312500000002
2742, 170, 82.5, 0.058905000000000027
2743, 172.5, 82.5, 0.0547903125
2744, 175, 82.5, 0.050531250000000014
2745, 177.5, 82.5, 0.046127812500000025
2746, 180, 82.5, 0.041580000000000006
2747, 182.5, 82.5, 0.03688781250000002
2748, 185, 82.5, 0.032051249999999989
2749, 187.5, 82.5, 0.027070312500000002
2750, 190, 82.5, 0.021945000000000024
2751, 192.5, 82.5, 0.016675312499999994
2752, 195, 82.5, 0.011261250000000013
2753, 197.5, 82.5, 0.0057028124999999813
2754, 200, 82.5, 0
2755, 0, 85, 0
2756, 2.5, 85, 0.0050362500000000017
2757, 5, 85, 0.0099450000000000024
2758, 7.5, 85, 0.01472625
2759, 10, 85, 0.019380000000000005
2760, 12.5, 85, 0.02390625
2761, 15, 85, 0.028305000000000004
2762, 17.5, 85, 0.032576249999999994
2763, 20, 85, 0.036720000000000017
2764, 22.5, 85, 0.040736250000000009
2765, 25, 85, 0.044625000000000012
2766, 27.5, 85, 0.048386250000000013
2767, 30, 85, 0.052019999999999997
2768, 32.5, 85, 0.055526250000000013
2769, 35, 85, 0.058904999999999999
2770, 37.5, 85, 0.062156250000000017
2771, 40, 85, 0.065280000000000019
2772, 42.5, 85, 0.068276249999999997
2773, 45, 85, 0.071145000000000014
2774, 47.5, 85, 0.073886250000000014
2775, 50, 85, 0.076500000000000012
2776, 52.5, 85, 0.078986250000000008
2777, 55, 85, 0.081345000000000015
2778, 57.5, 85, 0.083576250000000005
2779, 60, 85, 0.085680000000000006
2780, 62.5, 85, 0.087656250000000005
2781, 65, 85, 0.089505000000000015
2782, 67.5, 85, 0.091226250000000023
2783, 70, 85, 0.092820000000000014
2784, 72.5, 85, 0.094286250000000002
2785, 75, 85, 0.095625000000000029
2786, 77.5, 85, 0.096836250000000026
2787, 80, 85, 0.097920000000000021
2788, 82.5, 85, 0.098876250000000027
2789, 85, 85, 0.099705000000000002
2790, 87.5, 85, 0.10040625000000002
2791, 90, 85, 0.10098000000000003
2792, 92.5, 85, 0.10142625000000002
2793, 95, 85, 0.10174500000000002
2794, 97.5, 85, 0.10193625000000001
2795, 100, 85, 0.10200000000000002
2796, 102.5, 85, 0.10193625000000001
2797, 105, 85, 0.10174500000000002
2798, 107.5, 85, 0.10142625000000001
2799, 110, 85, 0.10098000000000001
2800, 112.5, 85, 0.10040625
2801, 115, 85, 0.099705000000000002
2802, 117.5, 85, 0.098876250000000013
2803, 120, 85, 0.097920000000000021
2804, 122.5, 85, 0.096836249999999999
2805, 125, 85, 0.095625000000000002
2806, 127.5, 85, 0.09428625000000003
2807, 130, 85, 0.092820000000000014
2808, 132.5, 85, 0.091226250000000036
2809, 135, 85, 0.089505000000000001
2810, 137.5, 85, 0.087656250000000005
2811, 140, 85, 0.08568000000000002
2812, 142.5, 85, 0.083576250000000005
2813, 145, 85, 0.081345000000000015
2814, 147.5, 85, 0.078986249999999994
2815, 150, 85, 0.076500000000000012
2816, 152.5, 85, 0.073886250000000028
2817, 155, 85, 0.071145000000000014
2818, 157.5, 85, 0.068276250000000024
2819, 160, 85, 0.065280000000000005
2820, 162.5, 85, 0.062156250000000017
2821, 165, 85, 0.058905000000000027
2822, 167.5, 85, 0.055526249999999999
2823, 170, 85, 0.052020000000000018
2824, 172.5, 85, 0.048386249999999992
2825, 175, 85, 0.044625000000000012
2826, 177.5, 85, 0.040736250000000016
2827, 180, 85, 0.036720000000000003
2828, 182.5, 85, 0.032576250000000008
2829, 185, 85, 0.02830499999999999
2830, 187.5, 85, 0.02390625
2831, 190, 85, 0.019380000000000022
2832, 192.5, 85, 0.014726249999999993
2833, 195, 85, 0.0099450000000000094
2834, 197.5, 85, 0.0050362499999999834
2835, 200, 85, 0
2836, 0, 87.5, 0
2837, 2.5, 87.5, 0.0043203125000000012
2838, 5, 87.5, 0.0085312500000000006
2839, 7.5, 87.5, 0.0126328125
2840, 10, 87.5, 0.016625000000000001
2841, 12.5, 87.5, 0.0205078125
2842, 15, 87.5, 0.024281250000000001
2843, 17.5, 87.5, 0.027945312499999993
2844, 20, 87.5, 0.031500000000000007
2845, 22.5, 87.5, 0.034945312499999999
2846, 25, 87.5, 0.038281250000000003
2847, 27.5, 87.5, 0.041507812500000005
2848, 30, 87.5, 0.044624999999999998
2849, 32.5, 87.5, 0.047632812500000003
2850, 35, 87.5, 0.050531249999999993
2851, 37.5, 87.5, 0.053320312500000008
2852, 40, 87.5, 0.056000000000000015
2853, 42.5, 87.5, 0.058570312499999999
2854, 45, 87.5, 0.061031250000000009
2855, 47.5, 87.5, 0.063382812499999996
2856, 50, 87.5, 0.065625000000000017
2857, 52.5, 87.5, 0.0677578125
2858, 55, 87.5, 0.069781250000000003
2859, 57.5, 87.5, 0.071695312499999997
2860, 60, 87.5, 0.073499999999999996
2861, 62.5, 87.5, 0.0751953125
2862, 65, 87.5, 0.076781250000000009
2863, 67.5, 87.5, 0.078257812499999996
2864, 70, 87.5, 0.079625000000000001
2865, 72.5, 87.5, 0.080882812499999998
2866, 75, 87.5, 0.082031250000000014
2867, 77.5, 87.5, 0.083070312500000021
2868, 80, 87.5, 0.084000000000000019
2869, 82.5, 87.5, 0.084820312500000009
2870, 85, 87.5, 0.085531250000000003
2871, 87.5, 87.5, 0.086132812500000017
2872, 90, 87.5, 0.086625000000000021
2873, 92.5, 87.5, 0.087007812500000004
2874, 95, 87.5, 0.087281250000000005
2875, 97.5, 87.5, 0.087445312499999997
2876, 100, 87.5, 0.087500000000000008
2877, 102.5, 87.5, 0.087445312499999997
2878, 105, 87.5, 0.087281250000000005
2879, 107.5, 87.5, 0.087007812500000004
2880, 110, 87.5, 0.086625000000000008
2881, 112.5, 87.5, 0.086132812500000003
2882, 115, 87.5, 0.085531250000000003
2883, 117.5, 87.5, 0.084820312499999995
2884, 120, 87.5, 0.084000000000000005
2885, 122.5, 87.5, 0.083070312499999993
2886, 125, 87.5, 0.08203125
2887, 127.5, 87.5, 0.080882812500000012
2888, 130, 87.5, 0.079625000000000001
2889, 132.5, 87.5, 0.07825781250000001
2890, 135, 87.5, 0.076781249999999995
2891, 137.5, 87.5, 0.0751953125
2892, 140, 87.5, 0.07350000000000001
2893, 142.5, 87.5, 0.071695312499999997
2894, 145, 87.5, 0.069781250000000003
2895, 147.5, 87.5, 0.067757812499999986
2896, 150, 87.5, 0.065625000000000017
2897, 152.5, 87.5, 0.06338281250000001
2898, 155, 87.5, 0.061031250000000009
2899, 157.5, 87.5, 0.058570312500000013
2900, 160, 87.5, 0.056000000000000001
2901, 162.5, 87.5, 0.053320312500000008
2902, 165, 87.5, 0.050531250000000014
2903, 167.5, 87.5, 0.047632812499999996
2904, 170, 87.5, 0.044625000000000012
2905, 172.5, 87.5, 0.041507812499999991
2906, 175, 87.5, 0.038281250000000003
2907, 177.5, 87.5, 0.034945312500000013
2908, 180, 87.5, 0.0315
2909, 182.5, 87.5, 0.027945312500000007
2910, 185, 87.5, 0.024281249999999987
2911, 187.5, 87.5, 0.0205078125
2912, 190, 87.5, 0.016625000000000015
2913, 192.5, 87.5, 0.012632812499999993
2914, 195, 87.5, 0.0085312500000000076
2915, 197.5, 87.5, 0.0043203124999999848
2916, 200, 87.5, 0
2917, 0, 90, 0
2918, 2.5, 90, 0.0035549999999999996
2919, 5, 90, 0.0070199999999999993
2920, 7.5, 90, 0.010394999999999998
2921, 10, 90, 0.013679999999999999
2922, 12.5, 90, 0.016874999999999998
2923, 15, 90, 0.019979999999999998
2924, 17.5, 90, 0.022994999999999991
2925, 20, 90, 0.025920000000000006
2926, 22.5, 90, 0.028754999999999996
2927, 25, 90, 0.0315
2928, 27.5, 90, 0.034154999999999998
2929, 30, 90, 0.036719999999999989
2930, 32.5, 90, 0.039195000000000001
2931, 35, 90, 0.041579999999999985
2932, 37.5, 90, 0.04387499999999999
2933, 40, 90, 0.046080000000000003
2934, 42.5, 90, 0.048194999999999988
2935, 45, 90, 0.050220000000000001
2936, 47.5, 90, 0.052154999999999993
2937, 50, 90, 0.053999999999999999
2938, 52.5, 90, 0.055754999999999999
2939, 55, 90, 0.057419999999999992
2940, 57.5, 90, 0.058994999999999985
2941, 60, 90, 0.060479999999999985
2942, 62.5, 90, 0.061874999999999986
2943, 65, 90, 0.063179999999999986
2944, 67.5, 90, 0.064394999999999994
2945, 70, 90, 0.065519999999999981
2946, 72.5, 90, 0.066554999999999989
2947, 75, 90, 0.067500000000000004
2948, 77.5, 90, 0.068355000000000013
2949, 80, 90, 0.069120000000000001
2950, 82.5, 90, 0.069794999999999996
2951, 85, 90, 0.070379999999999998
2952, 87.5, 90, 0.070874999999999994
2953, 90, 90, 0.071279999999999996
2954, 92.5, 90, 0.071594999999999992
2955, 95, 90, 0.071819999999999995
2956, 97.5, 90, 0.071954999999999991
2957, 100, 90, 0.071999999999999995
2958, 102.5, 90, 0.071954999999999991
2959, 105, 90, 0.071819999999999995
2960, 107.5, 90, 0.071594999999999978
2961, 110, 90, 0.071279999999999996
2962, 112.5, 90, 0.07087499999999998
2963, 115, 90, 0.070379999999999998
2964, 117.5, 90, 0.069794999999999982
2965, 120, 90, 0.069119999999999987
2966, 122.5, 90, 0.068354999999999985
2967, 125, 90, 0.067499999999999991
2968, 127.5, 90, 0.066555000000000003
2969, 130, 90, 0.065519999999999981
2970, 132.5, 90, 0.064394999999999994
2971, 135, 90, 0.063179999999999986
2972, 137.5, 90, 0.061874999999999986
2973, 140, 90, 0.060479999999999985
2974, 142.5, 90, 0.058994999999999985
2975, 145, 90, 0.057419999999999992
2976, 147.5, 90, 0.055754999999999985
2977, 150, 90, 0.053999999999999999
2978, 152.5, 90, 0.052155000000000007
2979, 155, 90, 0.050220000000000001
2980, 157.5, 90, 0.048195000000000002
2981, 160, 90, 0.046079999999999996
2982, 162.5, 90, 0.04387499999999999
2983, 165, 90, 0.041579999999999999
2984, 167.5, 90, 0.039194999999999987
2985, 170, 90, 0.036720000000000003
2986, 172.5, 90, 0.034154999999999984
2987, 175, 90, 0.0315
2988, 177.5, 90, 0.028755000000000006
2989, 180, 90, 0.025919999999999992
2990, 182.5, 90, 0.022995000000000002
2991, 185, 90, 0.019979999999999984
2992, 187.5, 90, 0.016874999999999998
2993, 190, 90, 0.013680000000000008
2994, 192.5, 90, 0.010394999999999993
2995, 195, 90, 0.0070200000000000054
2996, 197.5, 90, 0.0035549999999999866
2997, 200, 90, 0
2998, 0, 92.5, 0
2999, 2.5, 92.5, 0.0027403124999999988
3000, 5, 92.5, 0.0054112499999999985
3001, 7.5, 92.5, 0.0080128124999999956
3002, 10, 92.5, 0.010544999999999995
3003, 12.5, 92.5, 0.013007812499999993
3004, 15, 92.5, 0.015401249999999991
3005, 17.5, 92.5, 0.017725312499999989
3006, 20, 92.5, 0.019979999999999994
3007, 22.5, 92.5, 0.022165312499999989
3008, 25, 92.5, 0.024281249999999987
3009, 27.5, 92.5, 0.026327812499999988
3010, 30, 92.5, 0.028304999999999983
3011, 32.5, 92.5, 0.030212812499999988
3012, 35, 92.5, 0.032051249999999976
3013, 37.5, 92.5, 0.033820312499999984
3014, 40, 92.5, 0.035519999999999989
3015, 42.5, 92.5, 0.037150312499999977
3016, 45, 92.5, 0.038711249999999982
3017, 47.5, 92.5, 0.040202812499999983
3018, 50, 92.5, 0.041624999999999988
3019, 52.5, 92.5, 0.042977812499999983
3020, 55, 92.5, 0.044261249999999981
3021, 57.5, 92.5, 0.045475312499999969
3022, 60, 92.5, 0.046619999999999967
3023, 62.5, 92.5, 0.047695312499999976
3024, 65, 92.5, 0.048701249999999981
3025, 67.5, 92.5, 0.049637812499999975
3026, 70, 92.5, 0.050504999999999967
3027, 72.5, 92.5, 0.051302812499999968
3028, 75, 92.5, 0.052031249999999973
3029, 77.5, 92.5, 0.052690312499999982
3030, 80, 92.5, 0.05327999999999998
3031, 82.5, 92.5, 0.053800312499999975
3032, 85, 92.5, 0.054251249999999973
3033, 87.5, 92.5, 0.054632812499999975
3034, 90, 92.5, 0.05494499999999998
3035, 92.5, 92.5, 0.055187812499999975
3036, 95, 92.5, 0.055361249999999973
3037, 97.5, 92.5, 0.055465312499999975
3038, 100, 92.5, 0.055499999999999973
3039, 102.5, 92.5, 0.055465312499999975
3040, 105, 92.5, 0.055361249999999973
3041, 107.5, 92.5, 0.055187812499999968
3042, 110, 92.5, 0.054944999999999973
3043, 112.5, 92.5, 0.054632812499999968
3044, 115, 92.5, 0.054251249999999973
3045, 117.5, 92.5, 0.053800312499999968
3046, 120, 92.5, 0.053279999999999973
3047, 122.5, 92.5, 0.052690312499999975
3048, 125, 92.5, 0.052031249999999973
3049, 127.5, 92.5, 0.051302812499999982
3050, 130, 92.5, 0.050504999999999967
3051, 132.5, 92.5, 0.049637812499999982
3052, 135, 92.5, 0.048701249999999967
3053, 137.5, 92.5, 0.047695312499999976
3054, 140, 92.5, 0.046619999999999974
3055, 142.5, 92.5, 0.045475312499999969
3056, 145, 92.5, 0.044261249999999981
3057, 147.5, 92.5, 0.042977812499999976
3058, 150, 92.5, 0.041624999999999988
3059, 152.5, 92.5, 0.04020281249999999
3060, 155, 92.5, 0.038711249999999982
3061, 157.5, 92.5, 0.037150312499999984
3062, 160, 92.5, 0.035519999999999982
3063, 162.5, 92.5, 0.033820312499999984
3064, 165, 92.5, 0.032051249999999989
3065, 167.5, 92.5, 0.030212812499999978
3066, 170, 92.5, 0.028304999999999993
3067, 172.5, 92.5, 0.026327812499999978
3068, 175, 92.5, 0.024281249999999987
3069, 177.5, 92.5, 0.022165312499999996
3070, 180, 92.5, 0.019979999999999987
3071, 182.5, 92.5, 0.017725312499999993
3072, 185, 92.5, 0.015401249999999984
3073, 187.5, 92.5, 0.013007812499999993
3074, 190, 92.5, 0.010545000000000004
3075, 192.5, 92.5, 0.0080128124999999904
3076, 195, 92.5, 0.0054112500000000011
3077, 197.5, 92.5, 0.0027403124999999889
3078, 200, 92.5, 0
3079, 0, 95, 0
3080, 2.5, 95, 0.0018762500000000018
3081, 5, 95, 0.0037050000000000039
3082, 7.5, 95, 0.0054862500000000041
3083, 10, 95, 0.0072200000000000077
3084, 12.5, 95, 0.0089062500000000062
3085, 15, 95, 0.010545000000000009
3086, 17.5, 95, 0.012136250000000008
3087, 20, 95, 0.013680000000000015
3088, 22.5, 95, 0.015176250000000013
3089, 25, 95, 0.016625000000000015
3090, 27.5, 95, 0.018026250000000018
3091, 30, 95, 0.019380000000000015
3092, 32.5, 95, 0.020686250000000017
3093, 35, 95, 0.021945000000000013
3094, 37.5, 95, 0.023156250000000021
3095, 40, 95, 0.024320000000000026
3096, 42.5, 95, 0.025436250000000021
3097, 45, 95, 0.026505000000000025
3098, 47.5, 95, 0.027526250000000026
3099, 50, 95, 0.028500000000000029
3100, 52.5, 95, 0.029426250000000029
3101, 55, 95, 0.030305000000000026
3102, 57.5, 95, 0.031136250000000025
3103, 60, 95, 0.031920000000000018
3104, 62.5, 95, 0.032656250000000026
3105, 65, 95, 0.033345000000000034
3106, 67.5, 95, 0.03398625000000003
3107, 70, 95, 0.034580000000000027
3108, 72.5, 95, 0.035126250000000026
3109, 75, 95, 0.035625000000000032
3110, 77.5, 95, 0.036076250000000039
3111, 80, 95, 0.03648000000000004
3112, 82.5, 95, 0.036836250000000036
3113, 85, 95, 0.037145000000000032
3114, 87.5, 95, 0.037406250000000037
3115, 90, 95, 0.037620000000000035
3116, 92.5, 95, 0.037786250000000035
3117, 95, 95, 0.037905000000000036
3118, 97.5, 95, 0.037976250000000031
3119, 100, 95, 0.038000000000000034
3120, 102.5, 95, 0.037976250000000031
3121, 105, 95, 0.037905000000000036
3122, 107.5, 95, 0.037786250000000035
3123, 110, 95, 0.037620000000000028
3124, 112.5, 95, 0.03740625000000003
3125, 115, 95, 0.037145000000000032
3126, 117.5, 95, 0.036836250000000029
3127, 120, 95, 0.036480000000000033
3128, 122.5, 95, 0.036076250000000032
3129, 125, 95, 0.035625000000000025
3130, 127.5, 95, 0.035126250000000032
3131, 130, 95, 0.034580000000000027
3132, 132.5, 95, 0.033986250000000037
3133, 135, 95, 0.033345000000000027
3134, 137.5, 95, 0.032656250000000026
3135, 140, 95, 0.031920000000000025
3136, 142.5, 95, 0.031136250000000025
3137, 145, 95, 0.030305000000000026
3138, 147.5, 95, 0.029426250000000025
3139, 150, 95, 0.028500000000000029
3140, 152.5, 95, 0.027526250000000026
3141, 155, 95, 0.026505000000000025
3142, 157.5, 95, 0.025436250000000028
3143, 160, 95, 0.024320000000000022
3144, 162.5, 95, 0.023156250000000021
3145, 165, 95, 0.021945000000000027
3146, 167.5, 95, 0.020686250000000017
3147, 170, 95, 0.019380000000000019
3148, 172.5, 95, 0.018026250000000011
3149, 175, 95, 0.016625000000000015
3150, 177.5, 95, 0.015176250000000018
3151, 180, 95, 0.01368000000000001
3152, 182.5, 95, 0.012136250000000013
3153, 185, 95, 0.010545000000000004
3154, 187.5, 95, 0.0089062500000000062
3155, 190, 95, 0.007220000000000012
3156, 192.5, 95, 0.0054862500000000015
3157, 195, 95, 0.0037050000000000069
3158, 197.5, 95, 0.0018762499999999949
3159, 200, 95, 0
3160, 0, 97.5, 0
3161, 2.5, 97.5, 0.00096281250000000099
3162, 5, 97.5, 0.0019012500000000019
3163, 7.5, 97.5, 0.0028153125000000023
3164, 10, 97.5, 0.0037050000000000039
3165, 12.5, 97.5, 0.0045703125000000041
3166, 15, 97.5, 0.0054112500000000046
3167, 17.5, 97.5, 0.0062278125000000042
3168, 20, 97.5, 0.0070200000000000089
3169, 22.5, 97.5, 0.0077878125000000074
3170, 25, 97.5, 0.0085312500000000076
3171, 27.5, 97.5, 0.0092503125000000085
3172, 30, 97.5, 0.0099450000000000077
3173, 32.5, 97.5, 0.01061531250000001
3174, 35, 97.5, 0.011261250000000007
3175, 37.5, 97.5, 0.011882812500000011
3176, 40, 97.5, 0.012480000000000014
3177, 42.5, 97.5, 0.013052812500000011
3178, 45, 97.5, 0.013601250000000013
3179, 47.5, 97.5, 0.014125312500000013
3180, 50, 97.5, 0.014625000000000015
3181, 52.5, 97.5, 0.015100312500000015
3182, 55, 97.5, 0.015551250000000013
3183, 57.5, 97.5, 0.015977812500000015
3184, 60, 97.5, 0.016380000000000013
3185, 62.5, 97.5, 0.016757812500000014
3186, 65, 97.5, 0.017111250000000015
3187, 67.5, 97.5, 0.017440312500000013
3188, 70, 97.5, 0.017745000000000014
3189, 72.5, 97.5, 0.018025312500000015
3190, 75, 97.5, 0.018281250000000016
3191, 77.5, 97.5, 0.018512812500000021
3192, 80, 97.5, 0.018720000000000021
3193, 82.5, 97.5, 0.018902812500000019
3194, 85, 97.5, 0.019061250000000016
3195, 87.5, 97.5, 0.01919531250000002
3196, 90, 97.5, 0.01930500000000002
3197, 92.5, 97.5, 0.019390312500000017
3198, 95, 97.5, 0.019451250000000017
3199, 97.5, 97.5, 0.019487812500000017
3200, 100, 97.5, 0.019500000000000017
3201, 102.5, 97.5, 0.019487812500000017
3202, 105, 97.5, 0.019451250000000017
3203, 107.5, 97.5, 0.019390312500000017
3204, 110, 97.5, 0.019305000000000017
3205, 112.5, 97.5, 0.019195312500000016
3206, 115, 97.5, 0.019061250000000016
3207, 117.5, 97.5, 0.018902812500000015
3208, 120, 97.5, 0.018720000000000018
3209, 122.5, 97.5, 0.018512812500000014
3210, 125, 97.5, 0.018281250000000016
3211, 127.5, 97.5, 0.018025312500000019
3212, 130, 97.5, 0.017745000000000014
3213, 132.5, 97.5, 0.017440312500000017
3214, 135, 97.5, 0.017111250000000012
3215, 137.5, 97.5, 0.016757812500000014
3216, 140, 97.5, 0.016380000000000016
3217, 142.5, 97.5, 0.015977812500000015
3218, 145, 97.5, 0.015551250000000013
3219, 147.5, 97.5, 0.015100312500000013
3220, 150, 97.5, 0.014625000000000015
3221, 152.5, 97.5, 0.014125312500000016
3222, 155, 97.5, 0.013601250000000013
3223, 157.5, 97.5, 0.013052812500000014
3224, 160, 97.5, 0.01248000000000001
3225, 162.5, 97.5, 0.011882812500000011
3226, 165, 97.5, 0.011261250000000013
3227, 167.5, 97.5, 0.010615312500000008
3228, 170, 97.5, 0.0099450000000000111
3229, 172.5, 97.5, 0.0092503125000000068
3230, 175, 97.5, 0.0085312500000000076
3231, 177.5, 97.5, 0.0077878125000000091
3232, 180, 97.5, 0.0070200000000000063
3233, 182.5, 97.5, 0.0062278125000000068
3234, 185, 97.5, 0.005411250000000002
3235, 187.5, 97.5, 0.0045703125000000041
3236, 190, 97.5, 0.0037050000000000069
3237, 192.5, 97.5, 0.002815312500000001
3238, 195, 97.5, 0.0019012500000000032
3239, 197.5, 97.5, 0.00096281249999999752
3240, 200, 97.5, 0
3241, 0, 100, 0
3242, 2.5, 100, 0
3243, 5, 100, 0
3244, 7.5, 100, 0
3245, 10, 100, 0
3246, 12.5, 100, 0
3247, 15, 100, 0
3248, 17.5, 100, 0
3249, 20, 100, 0
3250, 22.5, 100, 0
3251, 25, 100, 0
3252, 27.5, 100, 0
3253, 30, 100, 0
3254, 32.5, 100, 0
3255, 35, 100, 0
3256, 37.5, 100, 0
3257, 40, 100, 0
3258, 42.5, 100, 0
3259, 45, 100, 0
3260, 47.5, 100, 0
3261, 50, 100, 0
3262, 52.5, 100, 0
3263, 55, 100, 0
3264, 57.5, 100, 0
3265, 60, 100, 0
3266, 62.5, 100, 0
3267, 65, 100, 0
3268, 67.5, 100, 0
3269, 70, 100, 0
3270, 72.5, 100, 0
3271, 75, 100, 0
3272, 77.5, 100, 0
3273, 80, 100, 0
3274, 82.5, 100, 0
3275, 85, 100, 0
3276, 87.5, 100, 0
3277, 90, 100, 0
3278, 92.5, 100, 0
3279, 95, 100, 0
3280, 97.5, 100, 0
3281, 100, 100, 0
3282, 102.5, 100, 0
3283, 105, 100, 0
3284, 107.5, 100, 0
3285, 110, 100, 0
3286, 112.5, 100, 0
3287, 115, 100, 0
3288, 117.5, 100, 0
3289, 120, 100, 0
3290, 122.5, 100, 0
3291, 125, 100, 0
3292, 127.5, 100, 0
3293, 130, 100, 0
3294, 132.5, 100, 0
3295, 135, 100, 0
3296, 137.5, 100, 0
3297, 140, 100, 0
3298, 142.5, 100, 0
3299, 145, 100, 0
3300, 147.5, 100, 0
3301, 150, 100, 0
3302, 152.5, 100, 0
3303, 155, 100, 0
3304, 157.5, 100, 0
3305, 160, 100, 0
3306, 162.5, 100, 0
3307, 165, 100, 0
3308, 167.5, 100, 0
3309, 170, 100, 0
3310, 172.5, 100, 0
3311, 175, 100, 0
3312, 177.5, 100, 0
3313, 180, 100, 0
3314, 182.5, 100, 0
3315, 185, 100, 0
3316, 187.5, 100, 0
3317, 190, 100, 0
3318, 192.5, 100, 0
3319, 195, 100, 0
3320, 197.5, 100, 0
3321, 200, 100, 0
*Element, type=S4R, elset=EALL
1, 1, 2, 83, 82
2, 2, 3, 84, 83
3, 3, 4, 85, 84
4, 4, 5, 86, 85
5, 5, 6, 87, 86
6, 6, 7, 88, 87
7, 7, 8, 89, 88
8, 8, 9, 90, 89
9, 9, 10, 91, 90
10, 10, 11, 92, 91
11, 11, 12, 93, 92
12, 12, 13, 94, 93
13, 13, 14, 95, 94
14, 14, 15, 96, 95
15, 15, 16, 97, 96
16, 16, 17, 98, 97
17, 17, 18, 99, 98
18, 18, 19, 100, 99
19, 19, 20, 101, 100
20, 20, 21, 102, 101
21, 21, 22, 103, 102
22, 22, 23, 104, 103
23, 23, 24, 105, 104
24, 24, 25, 106, 105
25, 25, 26, 107, 106
26, 26, 27, 108, 107
27, 27, 28, 109, 108
28, 28, 29, 110, 109
29, 29, 30, 111, 110
30, 30, 31, 112, 111
31, 31, 32, 113, 112
32, 32, 33, 114, 113
33, 33, 34, 115, 114
34, 34, 35, 116, 115
35, 35, 36, 117, 116
36, 36, 37, 118, 117
37, 37, 38, 119, 118
38, 38, 39, 120, 119
39, 39, 40, 121, 120
40, 40, 41, 122, 121
41, 41, 42, 123, 122
42, 42, 43, 124, 123
43, 43, 44, 125, 124
44, 44, 45, 126, 125
45, 45, 46, 127, 126
46, 46, 47, 128, 127
47, 47, 48, 129, 128
48, 48, 49, 130, 129
49, 49, 50, 131, 130
50, 50, 51, 132, 131
51, 51, 52, 133, 132
52, 52, 53, 134, 133
53, 53, 54, 135, 134
54, 54, 55, 136, 135
55, 55, 56, 137, 136
56, 56, 57, 138, 137
57, 57, 58, 139, 138
58, 58, 59, 140, 139
59, 59, 60, 141, 140
60, 60, 61, 142, 141
61, 61, 62, 143, 142
62, 62, 63, 144, 143
63, 63, 64, 145, 144
64, 64, 65, 146, 145
65, 65, 66, 147, 146
66, 66, 67, 148, 147
67, 67, 68, 149, 148
68, 68, 69, 150, 149
69, 69, 70, 151, 150
70, 70, 71, 152, 151
71, 71, 72, 153, 152
72, 72, 73, 154, 153
73, 73, 74, 155, 154
74, 74, 75, 156, 155
75, 75, 76, 157, 156
76, 76, 77, 158, 157
77, 77, 78, 159, 158
78, 78, 79, 160, 159
79, 79, 80, 161, 160
80, 80, 81, 162, 161
81, 82, 83, 164, 163
82, 83, 84, 165, 164
83, 84, 85, 166, 165
84, 85, 86, 167, 166
85, 86, 87, 168, 167
86, 87, 88, 169, 168
87, 88, 89, 170, 169
88, 89, 90, 171, 170
89, 90, 91, 172, 171
90, 91, 92, 173, 172
91, 92, 93, 174, 173
92, 93, 94, 175, 174
93, 94, 95, 176, 175
94, 95, 96, 177, 176
95, 96, 97, 178, 177
96, 97, 98, 179, 178
97, 98, 99, 180, 179
98, 99, 100, 181, 180
99, 100, 101, 182, 181
100, 101, 102, 183, 182
101, 102, 103, 184, 183
102, 103, 104, 185, 184
103, 104, 105, 186, 185
104, 105, 106, 187, 186
105, 106, 107, 188, 187
106, 107, 108, 189, 188
107, 108, 109, 190, 189
108, 109, 110, 191, 190
109, 110, 111, 192, 191
110, 111, 112, 193, 192
111, 112, 113, 194, 193
112, 113, 114, 195, 194
113, 114, 115, 196, 195
114, 115, 116, 197, 196
115, 116, 117, 198, 197
116, 117, 118, 199, 198
117, 118, 119, 200, 199
118, 119, 120, 201, 200
119, 120, 121, 202, 201
120, 121, 122, 203, 202
121, 122, 123, 204, 203
122, 123, 124, 205, 204
123, 124, 125, 206, 205
124, 125, 126, 207, 206
125, 126, 127, 208, 207
126, 127, 128, 209, 208
127, 128, 129, 210, 209
128, 129, 130, 211, 210
129, 130, 131, 212, 211
130, 131, 132, 213, 212
131, 132, 133, 214, 213
132, 133, 134, 215, 214
133, 134, 135, 216, 215
134, 135, 136, 217, 216
135, 136, 137, 218, 217
136, 137, 138, 219, 218
137, 138, 139, 220, 219
138, 139, 140, 221, 220
139, 140, 141, 222, 221
140, 141, 142, 223, 222
141, 142, 143, 224, 223
142, 143, 144, 225, 224
143, 144, 145, 226, 225
144, 145, 146, 227, 226
145, 146, 147, 228, 227
146, 147, 148, 229, 228
147, 148, 149, 230, 229
148, 149, 150, 231, 230
149, 150, 151, 232, 231
150, 151, 152, 233, 232
151, 152, 153, 234, 233
152, 153, 154, 235, 234
153, 154, 155, 236, 235
154, 155, 156, 237, 236
155, 156, 157, 238, 237
156, 157, 158, 239, 238
157, 158, 159, 240, 239
158, 159, 160, 241, 240
159, 160, 161, 242, 241
160, 161, 162, 243, 242
161, 163, 164, 245, 244
162, 164, 165, 246, 245
163, 165, 166, 247, 246
164, 166, 167, 248, 247
165, 167, 168, 249, 248
166, 168, 169, 250, 249
167, 169, 170, 251, 250
168, 170, 171, 252, 251
169, 171, 172, 253, 252
170, 172, 173, 254, 253
171, 173, 174, 255, 254
172, 174, 175, 256, 255
173, 175, 176, 257, 256
174, 176, 177, 258, 257
175, 177, 178, 259, 258
176, 178, 179, 260, 259
177, 179, 180, 261, 260
178, 180, 181, 262, 261
179, 181, 182, 263, 262
180, 182, 183, 264, 263
181, 183, 184, 265, 264
182, 184, 185, 266, 265
183, 185, 186, 267, 266
184, 186, 187, 268, 267
185, 187, 188, 269, 268
186, 188, 189, 270, 269
187, 189, 190, 271, 270
188, 190, 191, 272, 271
189, 191, 192, 273, 272
190, 192, 193, 274, 273
191, 193, 194, 275, 274
192, 194, 195, 276, 275
193, 195, 196, 277, 276
194, 196, 197, 278, 277
195, 197, 198, 279, 278
196, 198, 199, 280, 279
197, 199, 200, 281, 280
198, 200, 201, 282, 281
199, 201, 202, 283, 282
200, 202, 203, 284, 283
201, 203, 204, 285, 284
202, 204, 205, 286, 285
203, 205, 206, 287, 286
204, 206, 207, 288, 287
205, 207, 208, 289, 288
206, 208, 209, 290, 289
207, 209, 210, 291, 290
208, 210, 211, 292, 291
209, 211, 212, 293, 292
210, 212, 213, 294, 293
211, 213, 214, 295, 294
212, 214, 215, 296, 295
213, 215, 216, 297, 296
214, 216, 217, 298, 297
215, 217, 218, 299, 298
216, 218, 219, 300, 299
217, 219, 220, 301, 300
218, 220, 221, 302, 301
219, 221, 222, 303, 302
220, 222, 223, 304, 303
221, 223, 224, 305, 304
222, 224, 225, 306, 305
223, 225, 226, 307, 306
224, 226, 227, 308, 307
225, 227, 228, 309, 308
226, 228, 229, 310, 309
227, 229, 230, 311, 310
228, 230, 231, 312, 311
229, 231, 232, 313, 312
230, 232, 233, 314, 313
231, 233, 234, 315, 314
232, 234, 235, 316, 315
233, 235, 236, 317, 316
234, 236, 237, 318, 317
235, 237, 238, 319, 318
236, 238, 239, 320, 319
237, 239, 240, 321, 320
238, 240, 241, 322, 321
239, 241, 242, 323, 322
240, 242, 243, 324, 323
241, 244, 245, 326, 325
242, 245, 246, 327, 326
243, 246, 247, 328, 327
244, 247, 248, 329, 328
245, 248, 249, 330, 329
246, 249, 250, 331, 330
247, 250, 251, 332, 331
248, 251, 252, 333, 332
249, 252, 253, 334, 333
250, 253, 254, 335, 334
251, 254, 255, 336, 335
252, 255, 256, 337, 336
253, 256, 257, 338, 337
254, 257, 258, 339, 338
255, 258, 259, 340, 339
256, 259, 260, 341, 340
257, 260, 261, 342, 341
258, 261, 262, 343, 342
259, 262, 263, 344, 343
260, 263, 264, 345, 344
261, 264, 265, 346, 345
262, 265, 266, 347, 346
263, 266, 267, 348, 347
264, 267, 268, 349, 348
265, 268, 269, 350, 349
266, 269, 270, 351, 350
267, 270, 271, 352, 351
268, 271, 272, 353, 352
269, 272, 273, 354, 353
270, 273, 274, 355, 354
271, 274, 275, 356, 355
272, 275, 276, 357, 356
273, 276, 277, 358, 357
274, 277, 278, 359, 358
275, 278, 279, 360, 359
276, 279, 280, 361, 360
277, 280, 281, 362, 361
278, 281, 282, 363, 362
279, 282, 283, 364, 363
280, 283, 284, 365, 364
281, 284, 285, 366, 365
282, 285, 286, 367, 366
283, 286, 287, 368, 367
284, 287, 288, 369, 368
285, 288, 289, 370, 369
286, 289, 290, 371, 370
287, 290, 291, 372, 371
288, 291, 292, 373, 372
289, 292, 293, 374, 373
290, 293, 294, 375, 374
291, 294, 295, 376, 375
292, 295, 296, 377, 376
293, 296, 297, 378, 377
294, 297, 298, 379, 378
295, 298, 299, 380, 379
296, 299, 300, 381, 380
297, 300, 301, 382, 381
298, 301, 302, 383, 382
299, 302, 303, 384, 383
300, 303, 304, 385, 384
301, 304, 305, 386, 385
302, 305, 306, 387, 386
303, 306, 307, 388, 387
304, 307, 308, 389, 388
305, 308, 309, 390, 389
306, 309, 310, 391, 390
307, 310, 311, 392, 391
308, 311, 312, 393, 392
309, 312, 313, 394, 393
310, 313, 314, 395, 394
311, 314, 315, 396, 395
312, 315, 316, 397, 396
313, 316, 317, 398, 397
314, 317, 318, 399, 398
315, 318, 319, 400, 399
316, 319, 320, 401, 400
317, 320, 321, 402, 401
318, 321, 322, 403, 402
319, 322, 323, 404, 403
320, 323, 324, 405, 404
321, 325, 326, 407, 406
322, 326, 327, 408, 407
323, 327, 328, 409, 408
324, 328, 329, 410, 409
325, 329, 330, 411, 410
326, 330, 331, 412, 411
327, 331, 332, 413, 412
328, 332, 333, 414, 413
329, 333, 334, 415, 414
330, 334, 335, 416, 415
331, 335, 336, 417, 416
332, 336, 337, 418, 417
333, 337, 338, 419, 418
334, 338, 339, 420, 419
335, 339, 340, 421, 420
336, 340, 341, 422, 421
337, 341, 342, 423, 422
338, 342, 343, 424, 423
339, 343, 344, 425, 424
340, 344, 345, 426, 425
341, 345, 346, 427, 426
342, 346, 347, 428, 427
343, 347, 348, 429, 428
344, 348, 349, 430, 429
345, 349, 350, 431, 430
346, 350, 351, 432, 431
347, 351, 352, 433, 432
348, 352, 353, 434, 433
349, 353, 354, 435, 434
350, 354, 355, 436, 435
351, 355, 356, 437, 436
352, 356, 357, 438, 437
353, 357, 358, 439, 438
354, 358, 359, 440, 439
355, 359, 360, 441, 440
356, 360, 361, 442, 441
357, 361, 362, 443, 442
358, 362, 363, 444, 443
359, 363, 364, 445, 444
360, 364, 365, 446, 445
361, 365, 366, 447, 446
362, 366, 367, 448, 447
363, 367, 368, 449, 448
364, 368, 369, 450, 449
365, 369, 370, 451, 450
366, 370, 371, 452, 451
367, 371, 372, 453, 452
368, 372, 373, 454, 453
369, 373, 374, 455, 454
370, 374, 375, 456, 455
371, 375, 376, 457, 456
372, 376, 377, 458, 457
373, 377, 378, 459, 458
374, 378, 379, 460, 459
375, 379, 380, 461, 460
376, 380, 381, 462, 461
377, 381, 382, 463, 462
378, 382, 383, 464, 463
379, 383, 384, 465, 464
380, 384, 385, 466, 465
381, 385, 386, 467, 466
382, 386, 387, 468, 467
383, 387, 388, 469, 468
384, 388, 389, 470, 469
385, 389, 390, 471, 470
386, 390, 391, 472, 471
387, 391, 392, 473, 472
388, 392, 393, 474, 473
389, 393, 394, 475, 474
390, 394, 395, 476, 475
391, 395, 396, 477, 476
392, 396, 397, 478, 477
393, 397, 398, 479, 478
394, 398, 399, 480, 479
395, 399, 400, 481, 480
396, 400, 401, 482, 481
397, 401, 402, 483, 482
398, 402, 403, 484, 483
399, 403, 404, 485, 484
400, 404, 405, 486, 485
401, 406, 407, 488, 487
402, 407, 408, 489, 488
403, 408, 409, 490, 489
404, 409, 410, 491, 490
405, 410, 411, 492, 491
406, 411, 412, 493, 492
407, 412, 413, 494, 493
408, 413, 414, 495, 494
409, 414, 415, 496, 495
410, 415, 416, 497, 496
411, 416, 417, 498, 497
412, 417, 418, 499, 498
413, 418, 419, 500, 499
414, 419, 420, 501, 500
415, 420, 421, 502, 501
416, 421, 422, 503, 502
417, 422, 423, 504, 503
418, 423, 424, 505, 504
419, 424, 425, 506, 505
420, 425, 426, 507, 506
421, 426, 427, 508, 507
422, 427, 428, 509, 508
423, 428, 429, 510, 509
424, 429, 430, 511, 510
425, 430, 431, 512, 511
426, 431, 432, 513, 512
427, 432, 433, 514, 513
428, 433, 434, 515, 514
429, 434, 435, 516, 515
430, 435, 436, 517, 516
431, 436, 437, 518, 517
432, 437, 438, 519, 518
433, 438, 439, 520, 519
434, 439, 440, 521, 520
435, 440, 441, 522, 521
436, 441, 442, 523, 522
437, 442, 443, 524, 523
438, 443, 444, 525, 524
439, 444, 445, 526, 525
440, 445, 446, 527, 526
441, 446, 447, 528, 527
442, 447, 448, 529, 528
443, 448, 449, 530, 529
444, 449, 450, 531, 530
445, 450, 451, 532, 531
446, 451, 452, 533, 532
447, 452, 453, 534, 533
448, 453, 454, 535, 534
449, 454, 455, 536, 535
450, 455, 456, 537, 536
451, 456, 457, 538, 537
452, 457, 458, 539, 538
453, 458, 459, 540, 539
454, 459, 460, 541, 540
455, 460, 461, 542, 541
456, 461, 462, 543, 542
457, 462, 463, 544, 543
458, 463, 464, 545, 544
459, 464, 465, 546, 545
460, 465, 466, 547, 546
461, 466, 467, 548, 547
462, 467, 468, 549, 548
463, 468, 469, 550, 549
464, 469, 470, 551, 550
465, 470, 471, 552, 551
466, 471, 472, 553, 552
467, 472, 473, 554, 553
468, 473, 474, 555, 554
469, 474, 475, 556, 555
470, 475, 476, 557, 556
471, 476, 477, 558, 557
472, 477, 478, 559, 558
473, 478, 479, 560, 559
474, 479, 480, 561, 560
475, 480, 481, 562, 561
476, 481, 482, 563, 562
477, 482, 483, 564, 563
478, 483, 484, 565, 564
479, 484, 485, 566, 565
480, 485, 486, 567, 566
481, 487, 488, 569, 568
482, 488, 489, 570, 569
483, 489, 490, 571, 570
484, 490, 491, 572, 571
485, 491, 492, 573, 572
486, 492, 493, 574, 573
487, 493, 494, 575, 574
488, 494, 495, 576, 575
489, 495, 496, 577, 576
490, 496, 497, 578, 577
491, 497, 498, 579, 578
492, 498, 499, 580, 579
493, 499, 500, 581, 580
494, 500, 501, 582, 581
495, 501, 502, 583, 582
496, 502, 503, 584, 583
497, 503, 504, 585, 584
498, 504, 505, 586, 585
499, 505, 506, 587, 586
500, 506, 507, 588, 587
501, 507, 508, 589, 588
502, 508, 509, 590, 589
503, 509, 510, 591, 590
504, 510, 511, 592, 591
505, 511, 512, 593, 592
506, 512, 513, 594, 593
507, 513, 514, 595, 594
508, 514, 515, 596, 595
509, 515, 516, 597, 596
510, 516, 517, 598, 597
511, 517, 518, 599, 598
512, 518, 519, 600, 599
513, 519, 520, 601, 600
514, 520, 521, 602, 601
515, 521, 522, 603, 602
516, 522, 523, 604, 603
517, 523, 524, 605, 604
518, 524, 525, 606, 605
519, 525, 526, 607, 606
520, 526, 527, 608, 607
521, 527, 528, 609, 608
522, 528, 529, 610, 609
523, 529, 530, 611, 610
524, 530, 531, 612, 611
525, 531, 532, 613, 612
526, 532, 533, 614, 613
527, 533, 534, 615, 614
528, 534, 535, 616, 615
529, 535, 536, 617, 616
530, 536, 537, 618, 617
531, 537, 538, 619, 618
532, 538, 539, 620, 619
533, 539, 540, 621, 620
534, 540, 541, 622, 621
535, 541, 542, 623, 622
536, 542, 543, 624, 623
537, 543, 544, 625, 624
538, 544, 545, 626, 625
539, 545, 546, 627, 626
540, 546, 547, 628, 627
541, 547, 548, 629, 628
542, 548, 549, 630, 629
543, 549, 550, 631, 630
544, 550, 551, 632, 631
545, 551, 552, 633, 632
546, 552, 553, 634, 633
547, 553, 554, 635, 634
548, 554, 555, 636, 635
549, 555, 556, 637, 636
550, 556, 557, 638, 637
551, 557, 558, 639, 638
552, 558, 559, 640, 639
553, 559, 560, 641, 640
554, 560, 561, 642, 641
555, 561, 562, 643, 642
556, 562, 563, 644, 643
557, 563, 564, 645, 644
558, 564, 565, 646, 645
559, 565, 566, 647, 646
560, 566, 567, 648, 647
561, 568, 569, 650, 649
562, 569, 570, 651, 650
563, 570, 571, 652, 651
564, 571, 572, 653, 652
565, 572, 573, 654, 653
566, 573, 574, 655, 654
567, 574, 575, 656, 655
568, 575, 576, 657, 656
569, 576, 577, 658, 657
570, 577, 578, 659, 658
571, 578, 579, 660, 659
572, 579, 580, 661, 660
573, 580, 581, 662, 661
574, 581, 582, 663, 662
575, 582, 583, 664, 663
576, 583, 584, 665, 664
577, 584, 585, 666, 665
578, 585, 586, 667, 666
579, 586, 587, 668, 667
580, 587, 588, 669, 668
581, 588, 589, 670, 669
582, 589, 590, 671, 670
583, 590, 591, 672, 671
584, 591, 592, 673, 672
585, 592, 593, 674, 673
586, 593, 594, 675, 674
587, 594, 595, 676, 675
588, 595, 596, 677, 676
589, 596, 597, 678, 677
590, 597, 598, 679, 678
591, 598, 599, 680, 679
592, 599, 600, 681, 680
593, 600, 601, 682, 681
594, 601, 602, 683, 682
595, 602, 603, 684, 683
596, 603, 604, 685, 684
597, 604, 605, 686, 685
598, 605, 606, 687, 686
599, 606, 607, 688, 687
600, 607, 608, 689, 688
601, 608, 609, 690, 689
602, 609, 610, 691, 690
603, 610, 611, 692, 691
604, 611, 612, 693, 692
605, 612, 613, 694, 693
606, 613, 614, 695, 694
607, 614, 615, 696, 695
608, 615, 616, 697, 696
609, 616, 617, 698, 697
610, 617, 618, 699, 698
611, 618, 619, 700, 699
612, 619, 620, 701, 700
613, 620, 621, 702, 701
614, 621, 622, 703, 702
615, 622, 623, 704, 703
616, 623, 624, 705, 704
617, 624, 625, 706, 705
618, 625, 626, 707, 706
619, 626, 627, 708, 707
620, 627, 628, 709, 708
621, 628, 629, 710, 709
622, 629, 630, 711, 710
623, 630, 631, 712, 711
624, 631, 632, 713, 712
625, 632, 633, 714, 713
626, 633, 634, 715, 714
627, 634, 635, 716, 715
628, 635, 636, 717, 716
629, 636, 637, 718, 717
630, 637, 638, 719, 718
631, 638, 639, 720, 719
632, 639, 640, 721, 720
633, 640, 641, 722, 721
634, 641, 642, 723, 722
635, 642, 643, 724, 723
636, 643, 644, 725, 724
637, 644, 645, 726, 725
638, 645, 646, 727, 726
639, 646, 647, 728, 727
640, 647, 648, 729, 728
641, 649, 650, 731, 730
642, 650, 651, 732, 731
643, 651, 652, 733, 732
644, 652, 653, 734, 733
645, 653, 654, 735, 734
646, 654, 655, 736, 735
647, 655, 656, 737, 736
648, 656, 657, 738, 737
649, 657, 658, 739, 738
650, 658, 659, 740, 739
651, 659, 660, 741, 740
652, 660, 661, 742, 741
653, 661, 662, 743, 742
654, 662, 663, 744, 743
655, 663, 664, 745, 744
656, 664, 665, 746, 745
657, 665, 666, 747, 746
658, 666, 667, 748, 747
659, 667, 668, 749, 748
660, 668, 669, 750, 749
661, 669, 670, 751, 750
662, 670, 671, 752, 751
663, 671, 672, 753, 752
664, 672, 673, 754, 753
665, 673, 674, 755, 754
666, 674, 675, 756, 755
667, 675, 676, 757, 756
668, 676, 677, 758, 757
669, 677, 678, 759, 758
670, 678, 679, 760, 759
671, 679, 680, 761, 760
672, 680, 681, 762, 761
673, 681, 682, 763, 762
674, 682, 683, 764, 763
675, 683, 684, 765, 764
676, 684, 685, 766, 765
677, 685, 686, 767, 766
678, 686, 687, 768, 767
679, 687, 688, 769, 768
680, 688, 689, 770, 769
681, 689, 690, 771, 770
682, 690, 691, 772, 771
683, 691, 692, 773, 772
684, 692, 693, 774, 773
685, 693, 694, 775, 774
686, 694, 695, 776, 775
687, 695, 696, 777, 776
688, 696, 697, 778, 777
689, 697, 698, 779, 778
690, 698, 699, 780, 779
691, 699, 700, 781, 780
692, 700, 701, 782, 781
693, 701, 702, 783, 782
694, 702, 703, 784, 783
695, 703, 704, 785, 784
696, 704, 705, 786, 785
697, 705, 706, 787, 786
698, 706, 707, 788, 787
699, 707, 708, 789, 788
700, 708, 709, 790, 789
701, 709, 710, 791, 790
702, 710, 711, 792, 791
703, 711, 712, 793, 792
704, 712, 713, 794, 793
705, 713, 714, 795, 794
706, 714, 715, 796, 795
707, 715, 716, 797, 796
708, 716, 717, 798, 797
709, 717, 718, 799, 798
710, 718, 719, 800, 799
711, 719, 720, 801, 800
712, 720, 721, 802, 801
713, 721, 722, 803, 802
714, 722, 723, 804, 803
715, 723, 724, 805, 804
716, 724, 725, 806, 805
717, 725, 726, 807, 806
718, 726, 727, 808, 807
719, 727, 728, 809, 808
720, 728, 729, 810, 809
721, 730, 731, 812, 811
722, 731, 732, 813, 812
723, 732, 733, 814, 813
724, 733, 734, 815, 814
725, 734, 735, 816, 815
726, 735, 736, 817, 816
727, 736, 737, 818, 817
728, 737, 738, 819, 818
729, 738, 739, 820, 819
730, 739, 740, 821, 820
731, 740, 741, 822, 821
732, 741, 742, 823, 822
733, 742, 743, 824, 823
734, 743, 744, 825, 824
735, 744, 745, 826, 825
736, 745, 746, 827, 826
737, 746, 747, 828, 827
738, 747, 748, 829, 828
739, 748, 749, 830, 829
740, 749, 750, 831, 830
741, 750, 751, 832, 831
742, 751, 752, 833, 832
743, 752, 753, 834, 833
744, 753, 754, 835, 834
745, 754, 755, 836, 835
746, 755, 756, 837, 836
747, 756, 757, 838, 837
748, 757, 758, 839, 838
749, 758, 759, 840, 839
750, 759, 760, 841, 840
751, 760, 761, 842, 841
752, 761, 762, 843, 842
753, 762, 763, 844, 843
754, 763, 764, 845, 844
755, 764, 765, 846, 845
756, 765, 766, 847, 846
757, 766, 767, 848, 847
758, 767, 768, 849, 848
759, 768, 769, 850, 849
760, 769, 770, 851, 850
761, 770, 771, 852, 851
762, 771, 772, 853, 852
763, 772, 773, 854, 853
764, 773, 774, 855, 854
765, 774, 775, 856, 855
766, 775, 776, 857, 856
767, 776, 777, 858, 857
768, 777, 778, 859, 858
769, 778, 779, 860, 859
770, 779, 780, 861, 860
771, 780, 781, 862, 861
772, 781, 782, 863, 862
773, 782, 783, 864, 863
774, 783, 784, 865, 864
775, 784, 785, 866, 865
776, 785, 786, 867, 866
777, 786, 787, 868, 867
778, 787, 788, 869, 868
779, 788, 789, 870, 869
780, 789, 790, 871, 870
781, 790, 791, 872, 871
782, 791, 792, 873, 872
783, 792, 793, 874, 873
784, 793, 794, 875, 874
785, 794, 795, 876, 875
786, 795, 796, 877, 876
787, 796, 797, 878, 877
788, 797, 798, 879, 878
789, 798, 799, 880, 879
790, 799, 800, 881, 880
791, 800, 801, 882, 881
792, 801, 802, 883, 882
793, 802, 803, 884, 883
794, 803, 804, 885, 884
795, 804, 805, 886, 885
796, 805, 806, 887, 886
797, 806, 807, 888, 887
798, 807, 808, 889, 888
799, 808, 809, 890, 889
800, 809, 810, 891, 890
801, 811, 812, 893, 892
802, 812, 813, 894, 893
803, 813, 814, 895, 894
804, 814, 815, 896, 895
805, 815, 816, 897, 896
806, 816, 817, 898, 897
807, 817, 818, 899, 898
808, 818, 819, 900, 899
809, 819, 820, 901, 900
810, 820, 821, 902, 901
811, 821, 822, 903, 902
812, 822, 823, 904, 903
813, 823, 824, 905, 904
814, 824, 825, 906, 905
815, 825, 826, 907, 906
816, 826, 827, 908, 907
817, 827, 828, 909, 908
818, 828, 829, 910, 909
819, 829, 830, 911, 910
820, 830, 831, 912, 911
821, 831, 832, 913, 912
822, 832, 833, 914, 913
823, 833, 834, 915, 914
824, 834, 835, 916, 915
825, 835, 836, 917, 916
826, 836, 837, 918, 917
827, 837, 838, 919, 918
828, 838, 839, 920, 919
829, 839, 840, 921, 920
830, 840, 841, 922, 921
831, 841, 842, 923, 922
832, 842, 843, 924, 923
833, 843, 844, 925, 924
834, 844, 845, 926, 925
835, 845, 846, 927, 926
836, 846, 847, 928, 927
837, 847, 848, 929, 928
838, 848, 849, 930, 929
839, 849, 850, 931, 930
840, 850, 851, 932, 931
841, 851, 852, 933, 932
842, 852, 853, 934, 933
843, 853, 854, 935, 934
844, 854, 855, 936, 935
845, 855, 856, 937, 936
846, 856, 857, 938, 937
847, 857, 858, 939, 938
848, 858, 859, 940, 939
849, 859, 860, 941, 940
850, 860, 861, 942, 941
851, 861, 862, 943, 942
852, 862, 863, 944, 943
853, 863, 864, 945, 944
854, 864, 865, 946, 945
855, 865, 866, 947, 946
856, 866, 867, 948, 947
857, 867, 868, 949, 948
858, 868, 869, 950, 949
859, 869, 870, 951, 950
860, 870, 871, 952, 951
861, 871, 872, 953, 952
862, 872, 873, 954, 953
863, 873, 874, 955, 954
864, 874, 875, 956, 955
865, 875, 876, 957, 956
866, 876, 877, 958, 957
867, 877, 878, 959, 958
868, 878, 879, 960, 959
869, 879, 880, 961, 960
870, 880, 881, 962, 961
871, 881, 882, 963, 962
872, 882, 883, 964, 963
873, 883, 884, 965, 964
874, 884, 885, 966, 965
875, 885, 886, 967, 966
876, 886, 887, 968, 967
877, 887, 888, 969, 968
878, 888, 889, 970, 969
879, 889, 890, 971, 970
880, 890, 891, 972, 971
881, 892, 893, 974, 973
882, 893, 894, 975, 974
883, 894, 895, 976, 975
884, 895, 896, 977, 976
885, 896, 897, 978, 977
886, 897, 898, 979, 978
887, 898, 899, 980, 979
888, 899, 900, 981, 980
889, 900, 901, 982, 981
890, 901, 902, 983, 982
891, 902, 903, 984, 983
892, 903, 904, 985, 984
893, 904, 905, 986, 985
894, 905, 906, 987, 986
895, 906, 907, 988, 987
896, 907, 908, 989, 988
897, 908, 909, 990, 989
898, 909, 910, 991, 990
899, 910, 911, 992, 991
900, 911, 912, 993, 992
901, 912, 913, 994, 993
902, 913, 914, 995, 994
903, 914, 915, 996, 995
904, 915, 916, 997, 996
905, 916, 917, 998, 997
906, 917, 918, 999, 998
907, 918, 919, 1000, 999
908, 919, 920, 1001, 1000
909, 920, 921, 1002, 1001
910, 921, 922, 1003, 1002
911, 922, 923, 1004, 1003
912, 923, 924, 1005, 1004
913, 924, 925, 1006, 1005
914, 925, 926, 1007, 1006
915, 926, 927, 1008, 1007
916, 927, 928, 1009, 1008
917, 928, 929, 1010, 1009
918, 929, 930, 1011, 1010
919, 930, 931, 1012, 1011
920, 931, 932, 1013, 1012
921, 932, 933, 1014, 1013
922, 933, 934, 1015, 1014
923, 934, 935, 1016, 1015
924, 935, 936, 1017, 1016
925, 936, 937, 1018, 1017
926, 937, 938, 1019, 1018
927, 938, 939, 1020, 1019
928, 939, 940, 1021, 1020
929, 940, 941, 1022, 1021
930, 941, 942, 1023, 1022
931, 942, 943, 1024, 1023
932, 943, 944, 1025, 1024
933, 944, 945, 1026, 1025
934, 945, 946, 1027, 1026
935, 946, 947, 1028, 1027
936, 947, 948, 1029, 1028
937, 948, 949, 1030, 1029
938, 949, 950, 1031, 1030
939, 950, 951, 1032, 1031
940, 951, 952, 1033, 1032
941, 952, 953, 1034, 1033
942, 953, 954, 1035, 1034
943, 954, 955, 1036, 1035
944, 955, 956, 1037, 1036
945, 956, 957, 1038, 1037
946, 957, 958, 1039, 1038
947, 958, 959, 1040, 1039
948, 959, 960, 1041, 1040
949, 960, 961, 1042, 1041
950, 961, 962, 1043, 1042
951, 962, 963, 1044, 1043
952, 963, 964, 1045, 1044
953, 964, 965, 1046, 1045
954, 965, 966, 1047, 1046
955, 966, 967, 1048, 1047
956, 967, 968, 1049, 1048
957, 968, 969, 1050, 1049
958, 969, 970, 1051, 1050
959, 970, 971, 1052, 1051
960, 971, 972, 1053, 1052
961, 973, 974, 1055, 1054
962, 974, 975, 1056, 1055
963, 975, 976, 1057, 1056
964, 976, 977, 1058, 1057
965, 977, 978, 1059, 1058
966, 978, 979, 1060, 1059
967, 979, 980, 1061, 1060
968, 980, 981, 1062, 1061
969, 981, 982, 1063, 1062
970, 982, 983, 1064, 1063
971, 983, 984, 1065, 1064
972, 984, 985, 1066, 1065
973, 985, 986, 1067, 1066
974, 986, 987, 1068, 1067
975, 987, 988, 1069, 1068
976, 988, 989, 1070, 1069
977, 989, 990, 1071, 1070
978, 990, 991, 1072, 1071
979, 991, 992, 1073, 1072
980, 992, 993, 1074, 1073
981, 993, 994, 1075, 1074
982, 994, 995, 1076, 1075
983, 995, 996, 1077, 1076
984, 996, 997, 1078, 1077
985, 997, 998, 1079, 1078
986, 998, 999, 1080, 1079
987, 999, 1000, 1081, 1080
988, 1000, 1001, 1082, 1081
989, 1001, 1002, 1083, 1082
990, 1002, 1003, 1084, 1083
991, 1003, 1004, 1085, 1084
992, 1004, 1005, 1086, 1085
993, 1005, 1006, 1087, 1086
994, 1006, 1007, 1088, 1087
995, 1007, 1008, 1089, 1088
996, 1008, 1009, 1090, 1089
997, 1009, 1010, 1091, 1090
998, 1010, 1011, 1092, 1091
999, 1011, 1012, 1093, 1092
1000, 1012, 1013, 1094, 1093
1001, 1013, 1014, 1095, 1094
1002, 1014, 1015, 1096, 1095
1003, 1015, 1016, 1097, 1096
1004, 1016, 1017, 1098, 1097
1005, 1017, 1018, 1099, 1098
1006, 1018, 1019, 1100, 1099
1007, 1019, 1020, 1101, 1100
1008, 1020, 1021, 1102, 1101
1009, 1021, 1022, 1103, 1102
1010, 1022, 1023, 1104, 1103
1011, 1023, 1024, 1105, 1104
1012, 1024, 1025, 1106, 1105
1013, 1025, 1026, 1107, 1106
1014, 1026, 1027, 1108, 1107
1015, 1027, 1028, 1109, 1108
1016, 1028, 1029, 1110, 1109
1017, 1029, 1030, 1111, 1110
1018, 1030, 1031, 1112, 1111
1019, 1031, 1032, 1113, 1112
1020, 1032, 1033, 1114, 1113
1021, 1033, 1034, 1115, 1114
1022, 1034, 1035, 1116, 1115
1023, 1035, 1036, 1117, 1116
1024, 1036, 1037, 1118, 1117
1025, 1037, 1038, 1119, 1118
1026, 1038, 1039, 1120, 1119
1027, 1039, 1040, 1121, 1120
1028, 1040, 1041, 1122, 1121
1029, 1041, 1042, 1123, 1122
1030, 1042, 1043, 1124, 1123
1031, 1043, 1044, 1125, 1124
1032, 1044, 1045, 1126, 1125
1033, 1045, 1046, 1127, 1126
1034, 1046, 1047, 1128, 1127
1035, 1047, 1048, 1129, 1128
1036, 1048, 1049, 1130, 1129
1037, 1049, 1050, 1131, 1130
1038, 1050, 1051, 1132, 1131
1039, 1051, 1052, 1133, 1132
1040, 1052, 1053, 1134, 1133
1041, 1054, 1055, 1136, 1135
1042, 1055, 1056, 1137, 1136
1043, 1056, 1057, 1138, 1137
1044, 1057, 1058, 1139, 1138
1045, 1058, 1059, 1140, 1139
1046, 1059, 1060, 1141, 1140
1047, 1060, 1061, 1142, 1141
1048, 1061, 1062, 1143, 1142
1049, 1062, 1063, 1144, 1143
1050, 1063, 1064, 1145, 1144
1051, 1064, 1065, 1146, 1145
1052, 1065, 1066, 1147, 1146
1053, 1066, 1067, 1148, 1147
1054, 1067, 1068, 1149, 1148
1055, 1068, 1069, 1150, 1149
1056, 1069, 1070, 1151, 1150
1057, 1070, 1071, 1152, 1151
1058, 1071, 1072, 1153, 1152
1059, 1072, 1073, 1154, 1153
1060, 1073, 1074, 1155, 1154
1061, 1074, 1075, 1156, 1155
1062, 1075, 1076, 1157, 1156
1063, 1076, 1077, 1158, 1157
1064, 1077, 1078, 1159, 1158
1065, 1078, 1079, 1160, 1159
1066, 1079, 1080, 1161, 1160
1067, 1080, 1081, 1162, 1161
1068, 1081, 1082, 1163, 1162
1069, 1082, 1083, 1164, 1163
1070, 1083, 1084, 1165, 1164
1071, 1084, 1085, 1166, 1165
1072, 1085, 1086, 1167, 1166
1073, 1086, 1087, 1168, 1167
1074, 1087, 1088, 1169, 1168
1075, 1088, 1089, 1170, 1169
1076, 1089, 1090, 1171, 1170
1077, 1090, 1091, 1172, 1171
1078, 1091, 1092, 1173, 1172
1079, 1092, 1093, 1174, 1173
1080, 1093, 1094, 1175, 1174
1081, 1094, 1095, 1176, 1175
1082, 1095, 1096, 1177, 1176
1083, 1096, 1097, 1178, 1177
1084, 1097, 1098, 1179, 1178
1085, 1098, 1099, 1180, 1179
1086, 1099, 1100, 1181, 1180
1087, 1100, 1101, 1182, 1181
1088, 1101, 1102, 1183, 1182
1089, 1102, 1103, 1184, 1183
1090, 1103, 1104, 1185, 1184
1091, 1104, 1105, 1186, 1185
1092, 1105, 1106, 1187, 1186
1093, 1106, 1107, 1188, 1187
1094, 1107, 1108, 1189, 1188
1095, 1108, 1109, 1190, 1189
1096, 1109, 1110, 1191, 1190
1097, 1110, 1111, 1192, 1191
1098, 1111, 1112, 1193, 1192
1099, 1112, 1113, 1194, 1193
1100, 1113, 1114, 1195, 1194
1101, 1114, 1115, 1196, 1195
1102, 1115, 1116, 1197, 1196
1103, 1116, 1117, 1198, 1197
1104, 1117, 1118, 1199, 1198
1105, 1118, 1119, 1200, 1199
1106, 1119, 1120, 1201, 1200
1107, 1120, 1121, 1202, 1201
1108, 1121, 1122, 1203, 1202
1109, 1122, 1123, 1204, 1203
1110, 1123, 1124, 1205, 1204
1111, 1124, 1125, 1206, 1205
1112, 1125, 1126, 1207, 1206
1113, 1126, 1127, 1208, 1207
1114, 1127, 1128, 1209, 1208
1115, 1128, 1129, 1210, 1209
1116, 1129, 1130, 1211, 1210
1117, 1130, 1131, 1212, 1211
1118, 1131, 1132, 1213, 1212
1119, 1132, 1133, 1214, 1213
1120, 1133, 1134, 1215, 1214
1121, 1135, 1136, 1217, 1216
1122, 1136, 1137, 1218, 1217
1123, 1137, 1138, 1219, 1218
1124, 1138, 1139, 1220, 1219
1125, 1139, 1140, 1221, 1220
1126, 1140, 1141, 1222, 1221
1127, 1141, 1142, 1223, 1222
1128, 1142, 1143, 1224, 1223
1129, 1143, 1144, 1225, 1224
1130, 1144, 1145, 1226, 1225
1131, 1145, 1146, 1227, 1226
1132, 1146, 1147, 1228, 1227
1133, 1147, 1148, 1229, 1228
1134, 1148, 1149, 1230, 1229
1135, 1149, 1150, 1231, 1230
1136, 1150, 1151, 1232, 1231
1137, 1151, 1152, 1233, 1232
1138, 1152, 1153, 1234, 1233
1139, 1153, 1154, 1235, 1234
1140, 1154, 1155, 1236, 1235
1141, 1155, 1156, 1237, 1236
1142, 1156, 1157, 1238, 1237
1143, 1157, 1158, 1239, 1238
1144, 1158, 1159, 1240, 1239
1145, 1159, 1160, 1241, 1240
1146, 1160, 1161, 1242, 1241
1147, 1161, 1162, 1243, 1242
1148, 1162, 1163, 1244, 1243
1149, 1163, 1164, 1245, 1244
1150, 1164, 1165, 1246, 1245
1151, 1165, 1166, 1247, 1246
1152, 1166, 1167, 1248, 1247
1153, 1167, 1168, 1249, 1248
1154, 1168, 1169, 1250, 1249
1155, 1169, 1170, 1251, 1250
1156, 1170, 1171, 1252, 1251
1157, 1171, 1172, 1253, 1252
1158, 1172, 1173, 1254, 1253
1159, 1173, 1174, 1255, 1254
1160, 1174, 1175, 1256, 1255
1161, 1175, 1176, 1257, 1256
1162, 1176, 1177, 1258, 1257
1163, 1177, 1178, 1259, 1258
1164, 1178, 1179, 1260, 1259
1165, 1179, 1180, 1261, 1260
1166, 1180, 1181, 1262, 1261
1167, 1181, 1182, 1263, 1262
1168, 1182, 1183, 1264, 1263
1169, 1183, 1184, 1265, 1264
1170, 1184, 1185, 1266, 1265
1171, 1185, 1186, 1267, 1266
1172, 1186, 1187, 1268, 1267
1173, 1187, 1188, 1269, 1268
1174, 1188, 1189, 1270, 1269
1175, 1189, 1190, 1271, 1270
1176, 1190, 1191, 1272, 1271
1177, 1191, 1192, 1273, 1272
1178, 1192, 1193, 1274, 1273
1179, 1193, 1194, 1275, 1274
1180, 1194, 1195, 1276, 1275
1181, 1195, 1196, 1277, 1276
1182, 1196, 1197, 1278, 1277
1183, 1197, 1198, 1279, 1278
1184, 1198, 1199, 1280, 1279
1185, 1199, 1200, 1281, 1280
1186, 1200, 1201, 1282, 1281
1187, 1201, 1202, 1283, 1282
1188, 1202, 1203, 1284, 1283
1189, 1203, 1204, 1285, 1284
1190, 1204, 1205, 1286, 1285
1191, 1205, 1206, 1287, 1286
1192, 1206, 1207, 1288, 1287
1193, 1207, 1208, 1289, 1288
1194, 1208, 1209, 1290, 1289
1195, 1209, 1210, 1291, 1290
1196, 1210, 1211, 1292, 1291
1197, 1211, 1212, 1293, 1292
1198, 1212, 1213, 1294, 1293
1199, 1213, 1214, 1295, 1294
1200, 1214, 1215, 1296, 1295
1201, 1216, 1217, 1298, 1297
1202, 1217, 1218, 1299, 1298
1203, 1218, 1219, 1300, 1299
1204, 1219, 1220, 1301, 1300
1205, 1220, 1221, 1302, 1301
1206, 1221, 1222, 1303, 1302
1207, 1222, 1223, 1304, 1303
1208, 1223, 1224, 1305, 1304
1209, 1224, 1225, 1306, 1305
1210, 1225, 1226, 1307, 1306
1211, 1226, 1227, 1308, 1307
1212, 1227, 1228, 1309, 1308
1213, 1228, 1229, 1310, 1309
1214, 1229, 1230, 1311, 1310
1215, 1230, 1231, 1312, 1311
1216, 1231, 1232, 1313, 1312
1217, 1232, 1233, 1314, 1313
1218, 1233, 1234, 1315, 1314
1219, 1234, 1235, 1316, 1315
1220, 1235, 1236, 1317, 1316
1221, 1236, 1237, 1318, 1317
1222, 1237, 1238, 1319, 1318
1223, 1238, 1239, 1320, 1319
1224, 1239, 1240, 1321, 1320
1225, 1240, 1241, 1322, 1321
1226, 1241, 1242, 1323, 1322
1227, 1242, 1243, 1324, 1323
1228, 1243, 1244, 1325, 1324
1229, 1244, 1245, 1326, 1325
1230, 1245, 1246, 1327, 1326
1231, 1246, 1247, 1328, 1327
1232, 1247, 1248, 1329, 1328
1233, 1248, 1249, 1330, 1329
1234, 1249, 1250, 1331, 1330
1235, 1250, 1251, 1332, 1331
1236, 1251, 1252, 1333, 1332
1237, 1252, 1253, 1334, 1333
1238, 1253, 1254, 1335, 1334
1239, 1254, 1255, 1336, 1335
1240, 1255, 1256, 1337, 1336
1241, 1256, 1257, 1338, 1337
1242, 1257, 1258, 1339, 1338
1243, 1258, 1259, 1340, 1339
1244, 1259, 1260, 1341, 1340
1245, 1260, 1261, 1342, 1341
1246, 1261, 1262, 1343, 1342
1247, 1262, 1263, 1344, 1343
1248, 1263, 1264, 1345, 1344
1249, 1264, 1265, 1346, 1345
1250, 1265, 1266, 1347, 1346
1251, 1266, 1267, 1348, 1347
1252, 1267, 1268, 1349, 1348
1253, 1268, 1269, 1350, 1349
1254, 1269, 1270, 1351, 1350
1255, 1270, 1271, 1352, 1351
1256, 1271, 1272, 1353, 1352
1257, 1272, 1273, 1354, 1353
1258, 1273, 1274, 1355, 1354
1259, 1274, 1275, 1356, 1355
1260, 1275, 1276, 1357, 1356
1261, 1276, 1277, 1358, 1357
1262, 1277, 1278, 1359, 1358
1263, 1278, 1279, 1360, 1359
1264, 1279, 1280, 1361, 1360
1265, 1280, 1281, 1362, 1361
1266, 1281, 1282, 1363, 1362
1267, 1282, 1283, 1364, 1363
1268, 1283, 1284, 1365, 1364
1269, 1284, 1285, 1366, 1365
1270, 1285, 1286, 1367, 1366
1271, 1286, 1287, 1368, 1367
1272, 1287, 1288, 1369, 1368
1273, 1288, 1289, 1370, 1369
1274, 1289, 1290, 1371, 1370
1275, 1290, 1291, 1372, 1371
1276, 1291, 1292, 1373, 1372
1277, 1292, 1293, 1374, 1373
1278, 1293, 1294, 1375, 1374
1279, 1294, 1295, 1376, 1375
1280, 1295, 1296, 1377, 1376
1281, 1297, 1298, 1379, 1378
1282, 1298, 1299, 1380, 1379
1283, 1299, 1300, 1381, 1380
1284, 1300, 1301, 1382, 1381
1285, 1301, 1302, 1383, 1382
1286, 1302, 1303, 1384, 1383
1287, 1303, 1304, 1385, 1384
1288, 1304, 1305, 1386, 1385
1289, 1305, 1306, 1387, 1386
1290, 1306, 1307, 1388, 1387
1291, 1307, 1308, 1389, 1388
1292, 1308, 1309, 1390, 1389
1293, 1309, 1310, 1391, 1390
1294, 1310, 1311, 1392, 1391
1295, 1311, 1312, 1393, 1392
1296, 1312, 1313, 1394, 1393
1297, 1313, 1314, 1395, 1394
1298, 1314, 1315, 1396, 1395
1299, 1315, 1316, 1397, 1396
1300, 1316, 1317, 1398, 1397
1301, 1317, 1318, 1399, 1398
1302, 1318, 1319, 1400, 1399
1303, 1319, 1320, 1401, 1400
1304, 1320, 1321, 1402, 1401
1305, 1321, 1322, 1403, 1402
1306, 1322, 1323, 1404, 1403
1307, 1323, 1324, 1405, 1404
1308, 1324, 1325, 1406, 1405
1309, 1325, 1326, 1407, 1406
1310, 1326, 1327, 1408, 1407
1311, 1327, 1328, 1409, 1408
1312, 1328, 1329, 1410, 1409
1313, 1329, 1330, 1411, 1410
1314, 1330, 1331, 1412, 1411
1315, 1331, 1332, 1413, 1412
1316, 1332, 1333, 1414, 1413
1317, 1333, 1334, 1415, 1414
1318, 1334, 1335, 1416, 1415
1319, 1335, 1336, 1417, 1416
1320, 1336, 1337, 1418, 1417
1321, 1337, 1338, 1419, 1418
1322, 1338, 1339, 1420, 1419
1323, 1339, 1340, 1421, 1420
1324, 1340, 1341, 1422, 1421
1325, 1341, 1342, 1423, 1422
1326, 1342, 1343, 1424, 1423
1327, 1343, 1344, 1425, 1424
1328, 1344, 1345, 1426, 1425
1329, 1345, 1346, 1427, 1426
1330, 1346, 1347, 1428, 1427
1331, 1347, 1348, 1429, 1428
1332, 1348, 1349, 1430, 1429
1333, 1349, 1350, 1431, 1430
1334, 1350, 1351, 1432, 1431
1335, 1351, 1352, 1433, 1432
1336, 1352, 1353, 1434, 1433
1337, 1353, 1354, 1435, 1434
1338, 1354, 1355, 1436, 1435
1339, 1355, 1356, 1437, 1436
1340, 1356, 1357, 1438, 1437
1341, 1357, 1358, 1439, 1438
1342, 1358, 1359, 1440, 1439
1343, 1359, 1360, 1441, 1440
1344, 1360, 1361, 1442, 1441
1345, 1361, 1362, 1443, 1442
1346, 1362, 1363, 1444, 1443
1347, 1363, 1364, 1445, 1444
1348, 1364, 1365, 1446, 1445
1349, 1365, 1366, 1447, 1446
1350, 1366, 1367, 1448, 1447
1351, 1367, 1368, 1449, 1448
1352, 1368, 1369, 1450, 1449
1353, 1369, 1370, 1451, 1450
1354, 1370, 1371, 1452, 1451
1355, 1371, 1372, 1453, 1452
1356, 1372, 1373, 1454, 1453
1357, 1373, 1374, 1455, 1454
1358, 1374, 1375, 1456, 1455
1359, 1375, 1376, 1457, 1456
1360, 1376, 1377, 1458, 1457
1361, 1378, 1379, 1460, 1459
1362, 1379, 1380, 1461, 1460
1363, 1380, 1381, 1462, 1461
1364, 1381, 1382, 1463, 1462
1365, 1382, 1383, 1464, 1463
1366, 1383, 1384, 1465, 1464
1367, 1384, 1385, 1466, 1465
1368, 1385, 1386, 1467, 1466
1369, 1386, 1387, 1468, 1467
1370, 1387, 1388, 1469, 1468
1371, 1388, 1389, 1470, 1469
1372, 1389, 1390, 1471, 1470
1373, 1390, 1391, 1472, 1471
1374, 1391, 1392, 1473, 1472
1375, 1392, 1393, 1474, 1473
1376, 1393, 1394, 1475, 1474
1377, 1394, 1395, 1476, 1475
1378, 1395, 1396, 1477, 1476
1379, 1396, 1397, 1478, 1477
1380, 1397, 1398, 1479, 1478
1381, 1398, 1399, 1480, 1479
1382, 1399, 1400, 1481, 1480
1383, 1400, 1401, 1482, 1481
1384, 1401, 1402, 1483, 1482
1385, 1402, 1403, 1484, 1483
1386, 1403, 1404, 1485, 1484
1387, 1404, 1405, 1486, 1485
1388, 1405, 1406, 1487, 1486
1389, 1406, 1407, 1488, 1487
1390, 1407, 1408, 1489, 1488
1391, 1408, 1409, 1490, 1489
1392, 1409, 1410, 1491, 1490
1393, 1410, 1411, 1492, 1491
1394, 1411, 1412, 1493, 1492
1395, 1412, 1413, 1494, 1493
1396, 1413, 1414, 1495, 1494
1397, 1414, 1415, 1496, 1495
1398, 1415, 1416, 1497, 1496
1399, 1416, 1417, 1498, 1497
1400, 1417, 1418, 1499, 1498
1401, 1418, 1419, 1500, 1499
1402, 1419, 1420, 1501, 1500
1403, 1420, 1421, 1502, 1501
1404, 1421, 1422, 1503, 1502
1405, 1422, 1423, 1504, 1503
1406, 1423, 1424, 1505, 1504
1407, 1424, 1425, 1506, 1505
1408, 1425, 1426, 1507, 1506
1409, 1426, 1427, 1508, 1507
1410, 1427, 1428, 1509, 1508
1411, 1428, 1429, 1510, 1509
1412, 1429, 1430, 1511, 1510
1413, 1430, 1431, 1512, 1511
1414, 1431, 1432, 1513, 1512
1415, 1432, 1433, 1514, 1513
1416, 1433, 1434, 1515, 1514
1417, 1434, 1435, 1516, 1515
1418, 1435, 1436, 1517, 1516
1419, 1436, 1437, 1518, 1517
1420, 1437, 1438, 1519, 1518
1421, 1438, 1439, 1520, 1519
1422, 1439, 1440, 1521, 1520
1423, 1440, 1441, 1522, 1521
1424, 1441, 1442, 1523, 1522
1425, 1442, 1443, 1524, 1523
1426, 1443, 1444, 1525, 1524
1427, 1444, 1445, 1526, 1525
1428, 1445, 1446, 1527, 1526
1429, 1446, 1447, 1528, 1527
1430, 1447, 1448, 1529, 1528
1431, 1448, 1449, 1530, 1529
1432, 1449, 1450, 1531, 1530
1433, 1450, 1451, 1532, 1531
1434, 1451, 1452, 1533, 1532
1435, 1452, 1453, 1534, 1533
1436, 1453, 1454, 1535, 1534
1437, 1454, 1455, 1536, 1535
1438, 1455, 1456, 1537, 1536
1439, 1456, 1457, 1538, 1537
1440, 1457, 1458, 1539, 1538
1441, 1459, 1460, 1541, 1540
1442, 1460, 1461, 1542, 1541
1443, 1461, 1462, 1543, 1542
1444, 1462, 1463, 1544, 1543
1445, 1463, 1464, 1545, 1544
1446, 1464, 1465, 1546, 1545
1447, 1465, 1466, 1547, 1546
1448, 1466, 1467, 1548, 1547
1449, 1467, 1468, 1549, 1548
1450, 1468, 1469, 1550, 1549
1451, 1469, 1470, 1551, 1550
1452, 1470, 1471, 1552, 1551
1453, 1471, 1472, 1553, 1552
1454, 1472, 1473, 1554, 1553
1455, 1473, 1474, 1555, 1554
1456, 1474, 1475, 1556, 1555
1457, 1475, 1476, 1557, 1556
1458, 1476, 1477, 1558, 1557
1459, 1477, 1478, 1559, 1558
1460, 1478, 1479, 1560, 1559
1461, 1479, 1480, 1561, 1560
1462, 1480, 1481, 1562, 1561
1463, 1481, 1482, 1563, 1562
1464, 1482, 1483, 1564, 1563
1465, 1483, 1484, 1565, 1564
1466, 1484, 1485, 1566, 1565
1467, 1485, 1486, 1567, 1566
1468, 1486, 1487, 1568, 1567
1469, 1487, 1488, 1569, 1568
1470, 1488, 1489, 1570, 1569
1471, 1489, 1490, 1571, 1570
1472, 1490, 1491, 1572, 1571
1473, 1491, 1492, 1573, 1572
1474, 1492, 1493, 1574, 1573
1475, 1493, 1494, 1575, 1574
1476, 1494, 1495, 1576, 1575
1477, 1495, 1496, 1577, 1576
1478, 1496, 1497, 1578, 1577
1479, 1497, 1498, 1579, 1578
1480, 1498, 1499, 1580, 1579
1481, 1499, 1500, 1581, 1580
1482, 1500, 1501, 1582, 1581
1483, 1501, 1502, 1583, 1582
1484, 1502, 1503, 1584, 1583
1485, 1503, 1504, 1585, 1584
1486, 1504, 1505, 1586, 1585
1487, 1505, 1506, 1587, 1586
1488, 1506, 1507, 1588, 1587
1489, 1507, 1508, 1589, 1588
1490, 1508, 1509, 1590, 1589
1491, 1509, 1510, 1591, 1590
1492, 1510, 1511, 1592, 1591
1493, 1511, 1512, 1593, 1592
1494, 1512, 1513, 1594, 1593
1495, 1513, 1514, 1595, 1594
1496, 1514, 1515, 1596, 1595
1497, 1515, 1516, 1597, 1596
1498, 1516, 1517, 1598, 1597
1499, 1517, 1518, 1599, 1598
1500, 1518, 1519, 1600, 1599
1501, 1519, 1520, 1601, 1600
1502, 1520, 1521, 1602, 1601
1503, 1521, 1522, 1603, 1602
1504, 1522, 1523, 1604, 1603
1505, 1523, 1524, 1605, 1604
1506, 1524, 1525, 1606, 1605
1507, 1525, 1526, 1607, 1606
1508, 1526, 1527, 1608, 1607
1509, 1527, 1528, 1609, 1608
1510, 1528, 1529, 1610, 1609
1511, 1529, 1530, 1611, 1610
1512, 1530, 1531, 1612, 1611
1513, 1531, 1532, 1613, 1612
1514, 1532, 1533, 1614, 1613
1515, 1533, 1534, 1615, 1614
1516, 1534, 1535, 1616, 1615
1517, 1535, 1536, 1617, 1616
1518, 1536, 1537, 1618, 1617
1519, 1537, 1538, 1619, 1618
1520, 1538, 1539, 1620, 1619
1521, 1540, 1541, 1622, 1621
1522, 1541, 1542, 1623, 1622
1523, 1542, 1543, 1624, 1623
1524, 1543, 1544, 1625, 1624
1525, 1544, 1545, 1626, 1625
1526, 1545, 1546, 1627, 1626
1527, 1546, 1547, 1628, 1627
1528, 1547, 1548, 1629, 1628
1529, 1548, 1549, 1630, 1629
1530, 1549, 1550, 1631, 1630
1531, 1550, 1551, 1632, 1631
1532, 1551, 1552, 1633, 1632
1533, 1552, 1553, 1634, 1633
1534, 1553, 1554, 1635, 1634
1535, 1554, 1555, 1636, 1635
1536, 1555, 1556, 1637, 1636
1537, 1556, 1557, 1638, 1637
1538, 1557, 1558, 1639, 1638
1539, 1558, 1559, 1640, 1639
1540, 1559, 1560, 1641, 1640
1541, 1560, 1561, 1642, 1641
1542, 1561, 1562, 1643, 1642
1543, 1562, 1563, 1644, 1643
1544, 1563, 1564, 1645, 1644
1545, 1564, 1565, 1646, 1645
1546, 1565, 1566, 1647, 1646
1547, 1566, 1567, 1648, 1647
1548, 1567, 1568, 1649, 1648
1549, 1568, 1569, 1650, 1649
1550, 1569, 1570, 1651, 1650
1551, 1570, 1571, 1652, 1651
1552, 1571, 1572, 1653, 1652
1553, 1572, 1573, 1654, 1653
1554, 1573, 1574, 1655, 1654
1555, 1574, 1575, 1656, 1655
1556, 1575, 1576, 1657, 1656
1557, 1576, 1577, 1658, 1657
1558, 1577, 1578, 1659, 1658
1559, 1578, 1579, 1660, 1659
1560, 1579, 1580, 1661, 1660
1561, 1580, 1581, 1662, 1661
1562, 1581, 1582, 1663, 1662
1563, 1582, 1583, 1664, 1663
1564, 1583, 1584, 1665, 1664
1565, 1584, 1585, 1666, 1665
1566, 1585, 1586, 1667, 1666
1567, 1586, 1587, 1668, 1667
1568, 1587, 1588, 1669, 1668
1569, 1588, 1589, 1670, 1669
1570, 1589, 1590, 1671, 1670
1571, 1590, 1591, 1672, 1671
1572, 1591, 1592, 1673, 1672
1573, 1592, 1593, 1674, 1673
1574, 1593, 1594, 1675, 1674
1575, 1594, 1595, 1676, 1675
1576, 1595, 1596, 1677, 1676
1577, 1596, 1597, 1678, 1677
1578, 1597, 1598, 1679, 1678
1579, 1598, 1599, 1680, 1679
1580, 1599, 1600, 1681, 1680
1581, 1600, 1601, 1682, 1681
1582, 1601, 1602, 1683, 1682
1583, 1602, 1603, 1684, 1683
1584, 1603, 1604, 1685, 1684
1585, 1604, 1605, 1686, 1685
1586, 1605, 1606, 1687, 1686
1587, 1606, 1607, 1688, 1687
1588, 1607, 1608, 1689, 1688
1589, 1608, 1609, 1690, 1689
1590, 1609, 1610, 1691, 1690
1591, 1610, 1611, 1692, 1691
1592, 1611, 1612, 1693, 1692
1593, 1612, 1613, 1694, 1693
1594, 1613, 1614, 1695, 1694
1595, 1614, 1615, 1696, 1695
1596, 1615, 1616, 1697, 1696
1597, 1616, 1617, 1698, 1697
1598, 1617, 1618, 1699, 1698
1599, 1618, 1619, 1700, 1699
1600, 1619, 1620, 1701, 1700
1601, 1621, 1622, 1703, 1702
1602, 1622, 1623, 1704, 1703
1603, 1623, 1624, 1705, 1704
1604, 1624, 1625, 1706, 1705
1605, 1625, 1626, 1707, 1706
1606, 1626, 1627, 1708, 1707
1607, 1627, 1628, 1709, 1708
1608, 1628, 1629, 1710, 1709
1609, 1629, 1630, 1711, 1710
1610, 1630, 1631, 1712, 1711
1611, 1631, 1632, 1713, 1712
1612, 1632, 1633, 1714, 1713
1613, 1633, 1634, 1715, 1714
1614, 1634, 1635, 1716, 1715
1615, 1635, 1636, 1717, 1716
1616, 1636, 1637, 1718, 1717
1617, 1637, 1638, 1719, 1718
1618, 1638, 1639, 1720, 1719
1619, 1639, 1640, 1721, 1720
1620, 1640, 1641, 1722, 1721
1621, 1641, 1642, 1723, 1722
1622, 1642, 1643, 1724, 1723
1623, 1643, 1644, 1725, 1724
1624, 1644, 1645, 1726, 1725
1625, 1645, 1646, 1727, 1726
1626, 1646, 1647, 1728, 1727
1627, 1647, 1648, 1729, 1728
1628, 1648, 1649, 1730, 1729
1629, 1649, 1650, 1731, 1730
1630, 1650, 1651, 1732, 1731
1631, 1651, 1652, 1733, 1732
1632, 1652, 1653, 1734, 1733
1633, 1653, 1654, 1735, 1734
1634, 1654, 1655, 1736, 1735
1635, 1655, 1656, 1737, 1736
1636, 1656, 1657, 1738, 1737
1637, 1657, 1658, 1739, 1738
1638, 1658, 1659, 1740, 1739
1639, 1659, 1660, 1741, 1740
1640, 1660, 1661, 1742, 1741
1641, 1661, 1662, 1743, 1742
1642, 1662, 1663, 1744, 1743
1643, 1663, 1664, 1745, 1744
1644, 1664, 1665, 1746, 1745
1645, 1665, 1666, 1747, 1746
1646, 1666, 1667, 1748, 1747
1647, 1667, 1668, 1749, 1748
1648, 1668, 1669, 1750, 1749
1649, 1669, 1670, 1751, 1750
1650, 1670, 1671, 1752, 1751
1651, 1671, 1672, 1753, 1752
1652, 1672, 1673, 1754, 1753
1653, 1673, 1674, 1755, 1754
1654, 1674, 1675, 1756, 1755
1655, 1675, 1676, 1757, 1756
1656, 1676, 1677, 1758, 1757
1657, 1677, 1678, 1759, 1758
1658, 1678, 1679, 1760, 1759
1659, 1679, 1680, 1761, 1760
1660, 1680, 1681, 1762, 1761
1661, 1681, 1682, 1763, 1762
1662, 1682, 1683, 1764, 1763
1663, 1683, 1684, 1765, 1764
1664, 1684, 1685, 1766, 1765
1665, 1685, 1686, 1767, 1766
1666, 1686, 1687, 1768, 1767
1667, 1687, 1688, 1769, 1768
1668, 1688, 1689, 1770, 1769
1669, 1689, 1690, 1771, 1770
1670, 1690, 1691, 1772, 1771
1671, 1691, 1692, 1773, 1772
1672, 1692, 1693, 1774, 1773
1673, 1693, 1694, 1775, 1774
1674, 1694, 1695, 1776, 1775
1675, 1695, 1696, 1777, 1776
1676, 1696, 1697, 1778, 1777
1677, 1697, 1698, 1779, 1778
1678, 1698, 1699, 1780, 1779
1679, 1699, 1700, 1781, 1780
1680, 1700, 1701, 1782, 1781
1681, 1702, 1703, 1784, 1783
1682, 1703, 1704, 1785, 1784
1683, 1704, 1705, 1786, 1785
1684, 1705, 1706, 1787, 1786
1685, 1706, 1707, 1788, 1787
1686, 1707, 1708, 1789, 1788
1687, 1708, 1709, 1790, 1789
1688, 1709, 1710, 1791, 1790
1689, 1710, 1711, 1792, 1791
1690, 1711, 1712, 1793, 1792
1691, 1712, 1713, 1794, 1793
1692, 1713, 1714, 1795, 1794
1693, 1714, 1715, 1796, 1795
1694, 1715, 1716, 1797, 1796
1695, 1716, 1717, 1798, 1797
1696, 1717, 1718, 1799, 1798
1697, 1718, 1719, 1800, 1799
1698, 1719, 1720, 1801, 1800
1699, 1720, 1721, 1802, 1801
1700, 1721, 1722, 1803, 1802
1701, 1722, 1723, 1804, 1803
1702, 1723, 1724, 1805, 1804
1703, 1724, 1725, 1806, 1805
1704, 1725, 1726, 1807, 1806
1705, 1726, 1727, 1808, 1807
1706, 1727, 1728, 1809, 1808
1707, 1728, 1729, 1810, 1809
1708, 1729, 1730, 1811, 1810
1709, 1730, 1731, 1812, 1811
1710, 1731, 1732, 1813, 1812
1711, 1732, 1733, 1814, 1813
1712, 1733, 1734, 1815, 1814
1713, 1734, 1735, 1816, 1815
1714, 1735, 1736, 1817, 1816
1715, 1736, 1737, 1818, 1817
1716, 1737, 1738, 1819, 1818
1717, 1738, 1739, 1820, 1819
1718, 1739, 1740, 1821, 1820
1719, 1740, 1741, 1822, 1821
1720, 1741, 1742, 1823, 1822
1721, 1742, 1743, 1824, 1823
1722, 1743, 1744, 1825, 1824
1723, 1744, 1745, 1826, 1825
1724, 1745, 1746, 1827, 1826
1725, 1746, 1747, 1828, 1827
1726, 1747, 1748, 1829, 1828
1727, 1748, 1749, 1830, 1829
1728, 1749, 1750, 1831, 1830
1729, 1750, 1751, 1832, 1831
1730, 1751, 1752, 1833, 1832
1731, 1752, 1753, 1834, 1833
1732, 1753, 1754, 1835, 1834
1733, 1754, 1755, 1836, 1835
1734, 1755, 1756, 1837, 1836
1735, 1756, 1757, 1838, 1837
1736, 1757, 1758, 1839, 1838
1737, 1758, 1759, 1840, 1839
1738, 1759, 1760, 1841, 1840
1739, 1760, 1761, 1842, 1841
1740, 1761, 1762, 1843, 1842
1741, 1762, 1763, 1844, 1843
1742, 1763, 1764, 1845, 1844
1743, 1764, 1765, 1846, 1845
1744, 1765, 1766, 1847, 1846
1745, 1766, 1767, 1848, 1847
1746, 1767, 1768, 1849, 1848
1747, 1768, 1769, 1850, 1849
1748, 1769, 1770, 1851, 1850
1749, 1770, 1771, 1852, 1851
1750, 1771, 1772, 1853, 1852
1751, 1772, 1773, 1854, 1853
1752, 1773, 1774, 1855, 1854
1753, 1774, 1775, 1856, 1855
1754, 1775, 1776, 1857, 1856
1755, 1776, 1777, 1858, 1857
1756, 1777, 1778, 1859, 1858
1757, 1778, 1779, 1860, 1859
1758, 1779, 1780, 1861, 1860
1759, 1780, 1781, 1862, 1861
1760, 1781, 1782, 1863, 1862
1761, 1783, 1784, 1865, 1864
1762, 1784, 1785, 1866, 1865
1763, 1785, 1786, 1867, 1866
1764, 1786, 1787, 1868, 1867
1765, 1787, 1788, 1869, 1868
1766, 1788, 1789, 1870, 1869
1767, 1789, 1790, 1871, 1870
1768, 1790, 1791, 1872, 1871
1769, 1791, 1792, 1873, 1872
1770, 1792, 1793, 1874, 1873
1771, 1793, 1794, 1875, 1874
1772, 1794, 1795, 1876, 1875
1773, 1795, 1796, 1877, 1876
1774, 1796, 1797, 1878, 1877
1775, 1797, 1798, 1879, 1878
1776, 1798, 1799, 1880, 1879
1777, 1799, 1800, 1881, 1880
1778, 1800, 1801, 1882, 1881
1779, 1801, 1802, 1883, 1882
1780, 1802, 1803, 1884, 1883
1781, 1803, 1804, 1885, 1884
1782, 1804, 1805, 1886, 1885
1783, 1805, 1806, 1887, 1886
1784, 1806, 1807, 1888, 1887
1785, 1807, 1808, 1889, 1888
1786, 1808, 1809, 1890, 1889
1787, 1809, 1810, 1891, 1890
1788, 1810, 1811, 1892, 1891
1789, 1811, 1812, 1893, 1892
1790, 1812, 1813, 1894, 1893
1791, 1813, 1814, 1895, 1894
1792, 1814, 1815, 1896, 1895
1793, 1815, 1816, 1897, 1896
1794, 1816, 1817, 1898, 1897
1795, 1817, 1818, 1899, 1898
1796, 1818, 1819, 1900, 1899
1797, 1819, 1820, 1901, 1900
1798, 1820, 1821, 1902, 1901
1799, 1821, 1822, 1903, 1902
1800, 1822, 1823, 1904, 1903
1801, 1823, 1824, 1905, 1904
1802, 1824, 1825, 1906, 1905
1803, 1825, 1826, 1907, 1906
1804, 1826, 1827, 1908, 1907
1805, 1827, 1828, 1909, 1908
1806, 1828, 1829, 1910, 1909
1807, 1829, 1830, 1911, 1910
1808, 1830, 1831, 1912, 1911
1809, 1831, 1832, 1913, 1912
1810, 1832, 1833, 1914, 1913
1811, 1833, 1834, 1915, 1914
1812, 1834, 1835, 1916, 1915
1813, 1835, 1836, 1917, 1916
1814, 1836, 1837, 1918, 1917
1815, 1837, 1838, 1919, 1918
1816, 1838, 1839, 1920, 1919
1817, 1839, 1840, 1921, 1920
1818, 1840, 1841, 1922, 1921
1819, 1841, 1842, 1923, 1922
1820, 1842, 1843, 1924, 1923
1821, 1843, 1844, 1925, 1924
1822, 1844, 1845, 1926, 1925
1823, 1845, 1846, 1927, 1926
1824, 1846, 1847, 1928, 1927
1825, 1847, 1848, 1929, 1928
1826, 1848, 1849, 1930, 1929
1827, 1849, 1850, 1931, 1930
1828, 1850, 1851, 1932, 1931
1829, 1851, 1852, 1933, 1932
1830, 1852, 1853, 1934, 1933
1831, 1853, 1854, 1935, 1934
1832, 1854, 1855, 1936, 1935
1833, 1855, 1856, 1937, 1936
1834, 1856, 1857, 1938, 1937
1835, 1857, 1858, 1939, 1938
1836, 1858, 1859, 1940, 1939
1837, 1859, 1860, 1941, 1940
1838, 1860, 1861, 1942, 1941
1839, 1861, 1862, 1943, 1942
1840, 1862, 1863, 1944, 1943
1841, 1864, 1865, 1946, 1945
1842, 1865, 1866, 1947, 1946
1843, 1866, 1867, 1948, 1947
1844, 1867, 1868, 1949, 1948
1845, 1868, 1869, 1950, 1949
1846, 1869, 1870, 1951, 1950
1847, 1870, 1871, 1952, 1951
1848, 1871, 1872, 1953, 1952
1849, 1872, 1873, 1954, 1953
1850, 1873, 1874, 1955, 1954
1851, 1874, 1875, 1956, 1955
1852, 1875, 1876, 1957, 1956
1853, 1876, 1877, 1958, 1957
1854, 1877, 1878, 1959, 1958
1855, 1878, 1879, 1960, 1959
1856, 1879, 1880, 1961, 1960
1857, 1880, 1881, 1962, 1961
1858, 1881, 1882, 1963, 1962
1859, 1882, 1883, 1964, 1963
1860, 1883, 1884, 1965, 1964
1861, 1884, 1885, 1966, 1965
1862, 1885, 1886, 1967, 1966
1863, 1886, 1887, 1968, 1967
1864, 1887, 1888, 1969, 1968
1865, 1888, 1889, 1970, 1969
1866, 1889, 1890, 1971, 1970
1867, 1890, 1891, 1972, 1971
1868, 1891, 1892, 1973, 1972
1869, 1892, 1893, 1974, 1973
1870, 1893, 1894, 1975, 1974
1871, 1894, 1895, 1976, 1975
1872, 1895, 1896, 1977, 1976
1873, 1896, 1897, 1978, 1977
1874, 1897, 1898, 1979, 1978
1875, 1898, 1899, 1980, 1979
1876, 1899, 1900, 1981, 1980
1877, 1900, 1901, 1982, 1981
1878, 1901, 1902, 1983, 1982
1879, 1902, 1903, 1984, 1983
1880, 1903, 1904, 1985, 1984
1881, 1904, 1905, 1986, 1985
1882, 1905, 1906, 1987, 1986
1883, 1906, 1907, 1988, 1987
1884, 1907, 1908, 1989, 1988
1885, 1908, 1909, 1990, 1989
1886, 1909, 1910, 1991, 1990
1887, 1910, 1911, 1992, 1991
1888, 1911, 1912, 1993, 1992
1889, 1912, 1913, 1994, 1993
1890, 1913, 1914, 1995, 1994
1891, 1914, 1915, 1996, 1995
1892, 1915, 1916, 1997, 1996
1893, 1916, 1917, 1998, 1997
1894, 1917, 1918, 1999, 1998
1895, 1918, 1919, 2000, 1999
1896, 1919, 1920, 2001, 2000
1897, 1920, 1921, 2002, 2001
1898, 1921, 1922, 2003, 2002
1899, 1922, 1923, 2004, 2003
1900, 1923, 1924, 2005, 2004
1901, 1924, 1925, 2006, 2005
1902, 1925, 1926, 2007, 2006
1903, 1926, 1927, 2008, 2007
1904, 1927, 1928, 2009, 2008
1905, 1928, 1929, 2010, 2009
1906, 1929, 1930, 2011, 2010
1907, 1930, 1931, 2012, 2011
1908, 1931, 1932, 2013, 2012
1909, 1932, 1933, 2014, 2013
1910, 1933, 1934, 2015, 2014
1911, 1934, 1935, 2016, 2015
1912, 1935, 1936, 2017, 2016
1913, 1936, 1937, 2018, 2017
1914, 1937, 1938, 2019, 2018
1915, 1938, 1939, 2020, 2019
1916, 1939, 1940, 2021, 2020
1917, 1940, 1941, 2022, 2021
1918, 1941, 1942, 2023, 2022
1919, 1942, 1943, 2024, 2023
1920, 1943, 1944, 2025, 2024
1921, 1945, 1946, 2027, 2026
1922, 1946, 1947, 2028, 2027
1923, 1947, 1948, 2029, 2028
1924, 1948, 1949, 2030, 2029
1925, 1949, 1950, 2031, 2030
1926, 1950, 1951, 2032, 2031
1927, 1951, 1952, 2033, 2032
1928, 1952, 1953, 2034, 2033
1929, 1953, 1954, 2035, 2034
1930, 1954, 1955, 2036, 2035
1931, 1955, 1956, 2037, 2036
1932, 1956, 1957, 2038, 2037
1933, 1957, 1958, 2039, 2038
1934, 1958, 1959, 2040, 2039
1935, 1959, 1960, 2041, 2040
1936, 1960, 1961, 2042, 2041
1937, 1961, 1962, 2043, 2042
1938, 1962, 1963, 2044, 2043
1939, 1963, 1964, 2045, 2044
1940, 1964, 1965, 2046, 2045
1941, 1965, 1966, 2047, 2046
1942, 1966, 1967, 2048, 2047
1943, 1967, 1968, 2049, 2048
1944, 1968, 1969, 2050, 2049
1945, 1969, 1970, 2051, 2050
1946, 1970, 1971, 2052, 2051
1947, 1971, 1972, 2053, 2052
1948, 1972, 1973, 2054, 2053
1949, 1973, 1974, 2055, 2054
1950, 1974, 1975, 2056, 2055
1951, 1975, 1976, 2057, 2056
1952, 1976, 1977, 2058, 2057
1953, 1977, 1978, 2059, 2058
1954, 1978, 1979, 2060, 2059
1955, 1979, 1980, 2061, 2060
1956, 1980, 1981, 2062, 2061
1957, 1981, 1982, 2063, 2062
1958, 1982, 1983, 2064, 2063
1959, 1983, 1984, 2065, 2064
1960, 1984, 1985, 2066, 2065
1961, 1985, 1986, 2067, 2066
1962, 1986, 1987, 2068, 2067
1963, 1987, 1988, 2069, 2068
1964, 1988, 1989, 2070, 2069
1965, 1989, 1990, 2071, 2070
1966, 1990, 1991, 2072, 2071
1967, 1991, 1992, 2073, 2072
1968, 1992, 1993, 2074, 2073
1969, 1993, 1994, 2075, 2074
1970, 1994, 1995, 2076, 2075
1971, 1995, 1996, 2077, 2076
1972, 1996, 1997, 2078, 2077
1973, 1997, 1998, 2079, 2078
1974, 1998, 1999, 2080, 2079
1975, 1999, 2000, 2081, 2080
1976, 2000, 2001, 2082, 2081
1977, 2001, 2002, 2083, 2082
1978, 2002, 2003, 2084, 2083
1979, 2003, 2004, 2085, 2084
1980, 2004, 2005, 2086, 2085
1981, 2005, 2006, 2087, 2086
1982, 2006, 2007, 2088, 2087
1983, 2007, 2008, 2089, 2088
1984, 2008, 2009, 2090, 2089
1985, 2009, 2010, 2091, 2090
1986, 2010, 2011, 2092, 2091
1987, 2011, 2012, 2093, 2092
1988, 2012, 2013, 2094, 2093
1989, 2013, 2014, 2095, 2094
1990, 2014, 2015, 2096, 2095
1991, 2015, 2016, 2097, 2096
1992, 2016, 2017, 2098, 2097
1993, 2017, 2018, 2099, 2098
1994, 2018, 2019, 2100, 2099
1995, 2019, 2020, 2101, 2100
1996, 2020, 2021, 2102, 2101
1997, 2021, 2022, 2103, 2102
1998, 2022, 2023, 2104, 2103
1999, 2023, 2024, 2105, 2104
2000, 2024, 2025, 2106, 2105
2001, 2026, 2027, 2108, 2107
2002, 2027, 2028, 2109, 2108
2003, 2028, 2029, 2110, 2109
2004, 2029, 2030, 2111, 2110
2005, 2030, 2031, 2112, 2111
2006, 2031, 2032, 2113, 2112
2007, 2032, 2033, 2114, 2113
2008, 2033, 2034, 2115, 2114
2009, 2034, 2035, 2116, 2115
2010, 2035, 2036, 2117, 2116
2011, 2036, 2037, 2118, 2117
2012, 2037, 2038, 2119, 2118
2013, 2038, 2039, 2120, 2119
2014, 2039, 2040, 2121, 2120
2015, 2040, 2041, 2122, 2121
2016, 2041, 2042, 2123, 2122
2017, 2042, 2043, 2124, 2123
2018, 2043, 2044, 2125, 2124
2019, 2044, 2045, 2126, 2125
2020, 2045, 2046, 2127, 2126
2021, 2046, 2047, 2128, 2127
2022, 2047, 2048, 2129, 2128
2023, 2048, 2049, 2130, 2129
2024, 2049, 2050, 2131, 2130
2025, 2050, 2051, 2132, 2131
2026, 2051, 2052, 2133, 2132
2027, 2052, 2053, 2134, 2133
2028, 2053, 2054, 2135, 2134
2029, 2054, 2055, 2136, 2135
2030, 2055, 2056, 2137, 2136
2031, 2056, 2057, 2138, 2137
2032, 2057, 2058, 2139, 2138
2033, 2058, 2059, 2140, 2139
2034, 2059, 2060, 2141, 2140
2035, 2060, 2061, 2142, 2141
2036, 2061, 2062, 2143, 2142
2037, 2062, 2063, 2144, 2143
2038, 2063, 2064, 2145, 2144
2039, 2064, 2065, 2146, 2145
2040, 2065, 2066, 2147, 2146
2041, 2066, 2067, 2148, 2147
2042, 2067, 2068, 2149, 2148
2043, 2068, 2069, 2150, 2149
2044, 2069, 2070, 2151, 2150
2045, 2070, 2071, 2152, 2151
2046, 2071, 2072, 2153, 2152
2047, 2072, 2073, 2154, 2153
2048, 2073, 2074, 2155, 2154
2049, 2074, 2075, 2156, 2155
2050, 2075, 2076, 2157, 2156
2051, 2076, 2077, 2158, 2157
2052, 2077, 2078, 2159, 2158
2053, 2078, 2079, 2160, 2159
2054, 2079, 2080, 2161, 2160
2055, 2080, 2081, 2162, 2161
2056, 2081, 2082, 2163, 2162
2057, 2082, 2083, 2164, 2163
2058, 2083, 2084, 2165, 2164
2059, 2084, 2085, 2166, 2165
2060, 2085, 2086, 2167, 2166
2061, 2086, 2087, 2168, 2167
2062, 2087, 2088, 2169, 2168
2063, 2088, 2089, 2170, 2169
2064, 2089, 2090, 2171, 2170
2065, 2090, 2091, 2172, 2171
2066, 2091, 2092, 2173, 2172
2067, 2092, 2093, 2174, 2173
2068, 2093, 2094, 2175, 2174
2069, 2094, 2095, 2176, 2175
2070, 2095, 2096, 2177, 2176
2071, 2096, 2097, 2178, 2177
2072, 2097, 2098, 2179, 2178
2073, 2098, 2099, 2180, 2179
2074, 2099, 2100, 2181, 2180
2075, 2100, 2101, 2182, 2181
2076, 2101, 2102, 2183, 2182
2077, 2102, 2103, 2184, 2183
2078, 2103, 2104, 2185, 2184
2079, 2104, 2105, 2186, 2185
2080, 2105, 2106, 2187, 2186
2081, 2107, 2108, 2189, 2188
2082, 2108, 2109, 2190, 2189
2083, 2109, 2110, 2191, 2190
2084, 2110, 2111, 2192, 2191
2085, 2111, 2112, 2193, 2192
2086, 2112, 2113, 2194, 2193
2087, 2113, 2114, 2195, 2194
2088, 2114, 2115, 2196, 2195
2089, 2115, 2116, 2197, 2196
2090, 2116, 2117, 2198, 2197
2091, 2117, 2118, 2199, 2198
2092, 2118, 2119, 2200, 2199
2093, 2119, 2120, 2201, 2200
2094, 2120, 2121, 2202, 2201
2095, 2121, 2122, 2203, 2202
2096, 2122, 2123, 2204, 2203
2097, 2123, 2124, 2205, 2204
2098, 2124, 2125, 2206, 2205
2099, 2125, 2126, 2207, 2206
2100, 2126, 2127, 2208, 2207
2101, 2127, 2128, 2209, 2208
2102, 2128, 2129, 2210, 2209
2103, 2129, 2130, 2211, 2210
2104, 2130, 2131, 2212, 2211
2105, 2131, 2132, 2213, 2212
2106, 2132, 2133, 2214, 2213
2107, 2133, 2134, 2215, 2214
2108, 2134, 2135, 2216, 2215
2109, 2135, 2136, 2217, 2216
2110, 2136, 2137, 2218, 2217
2111, 2137, 2138, 2219, 2218
2112, 2138, 2139, 2220, 2219
2113, 2139, 2140, 2221, 2220
2114, 2140, 2141, 2222, 2221
2115, 2141, 2142, 2223, 2222
2116, 2142, 2143, 2224, 2223
2117, 2143, 2144, 2225, 2224
2118, 2144, 2145, 2226, 2225
2119, 2145, 2146, 2227, 2226
2120, 2146, 2147, 2228, 2227
2121, 2147, 2148, 2229, 2228
2122, 2148, 2149, 2230, 2229
2123, 2149, 2150, 2231, 2230
2124, 2150, 2151, 2232, 2231
2125, 2151, 2152, 2233, 2232
2126, 2152, 2153, 2234, 2233
2127, 2153, 2154, 2235, 2234
2128, 2154, 2155, 2236, 2235
2129, 2155, 2156, 2237, 2236
2130, 2156, 2157, 2238, 2237
2131, 2157, 2158, 2239, 2238
2132, 2158, 2159, 2240, 2239
2133, 2159, 2160, 2241, 2240
2134, 2160, 2161, 2242, 2241
2135, 2161, 2162, 2243, 2242
2136, 2162, 2163, 2244, 2243
2137, 2163, 2164, 2245, 2244
2138, 2164, 2165, 2246, 2245
2139, 2165, 2166, 2247, 2246
2140, 2166, 2167, 2248, 2247
2141, 2167, 2168, 2249, 2248
2142, 2168, 2169, 2250, 2249
2143, 2169, 2170, 2251, 2250
2144, 2170, 2171, 2252, 2251
2145, 2171, 2172, 2253, 2252
2146, 2172, 2173, 2254, 2253
2147, 2173, 2174, 2255, 2254
2148, 2174, 2175, 2256, 2255
2149, 2175, 2176, 2257, 2256
2150, 2176, 2177, 2258, 2257
2151, 2177, 2178, 2259, 2258
2152, 2178, 2179, 2260, 2259
2153, 2179, 2180, 2261, 2260
2154, 2180, 2181, 2262, 2261
2155, 2181, 2182, 2263, 2262
2156, 2182, 2183, 2264, 2263
2157, 2183, 2184, 2265, 2264
2158, 2184, 2185, 2266, 2265
2159, 2185, 2186, 2267, 2266
2160, 2186, 2187, 2268, 2267
2161, 2188, 2189, 2270, 2269
2162, 2189, 2190, 2271, 2270
2163, 2190, 2191, 2272, 2271
2164, 2191, 2192, 2273, 2272
2165, 2192, 2193, 2274, 2273
2166, 2193, 2194, 2275, 2274
2167, 2194, 2195, 2276, 2275
2168, 2195, 2196, 2277, 2276
2169, 2196, 2197, 2278, 2277
2170, 2197, 2198, 2279, 2278
2171, 2198, 2199, 2280, 2279
2172, 2199, 2200, 2281, 2280
2173, 2200, 2201, 2282, 2281
2174, 2201, 2202, 2283, 2282
2175, 2202, 2203, 2284, 2283
2176, 2203, 2204, 2285, 2284
2177, 2204, 2205, 2286, 2285
2178, 2205, 2206, 2287, 2286
2179, 2206, 2207, 2288, 2287
2180, 2207, 2208, 2289, 2288
2181, 2208, 2209, 2290, 2289
2182, 2209, 2210, 2291, 2290
2183, 2210, 2211, 2292, 2291
2184, 2211, 2212, 2293, 2292
2185, 2212, 2213, 2294, 2293
2186, 2213, 2214, 2295, 2294
2187, 2214, 2215, 2296, 2295
2188, 2215, 2216, 2297, 2296
2189, 2216, 2217, 2298, 2297
2190, 2217, 2218, 2299, 2298
2191, 2218, 2219, 2300, 2299
2192, 2219, 2220, 2301, 2300
2193, 2220, 2221, 2302, 2301
2194, 2221, 2222, 2303, 2302
2195, 2222, 2223, 2304, 2303
2196, 2223, 2224, 2305, 2304
2197, 2224, 2225, 2306, 2305
2198, 2225, 2226, 2307, 2306
2199, 2226, 2227, 2308, 2307
2200, 2227, 2228, 2309, 2308
2201, 2228, 2229, 2310, 2309
2202, 2229, 2230, 2311, 2310
2203, 2230, 2231, 2312, 2311
2204, 2231, 2232, 2313, 2312
2205, 2232, 2233, 2314, 2313
2206, 2233, 2234, 2315, 2314
2207, 2234, 2235, 2316, 2315
2208, 2235, 2236, 2317, 2316
2209, 2236, 2237, 2318, 2317
2210, 2237, 2238, 2319, 2318
2211, 2238, 2239, 2320, 2319
2212, 2239, 2240, 2321, 2320
2213, 2240, 2241, 2322, 2321
2214, 2241, 2242, 2323, 2322
2215, 2242, 2243, 2324, 2323
2216, 2243, 2244, 2325, 2324
2217, 2244, 2245, 2326, 2325
2218, 2245, 2246, 2327, 2326
2219, 2246, 2247, 2328, 2327
2220, 2247, 2248, 2329, 2328
2221, 2248, 2249, 2330, 2329
2222, 2249, 2250, 2331, 2330
2223, 2250, 2251, 2332, 2331
2224, 2251, 2252, 2333, 2332
2225, 2252, 2253, 2334, 2333
2226, 2253, 2254, 2335, 2334
2227, 2254, 2255, 2336, 2335
2228, 2255, 2256, 2337, 2336
2229, 2256, 2257, 2338, 2337
2230, 2257, 2258, 2339, 2338
2231, 2258, 2259, 2340, 2339
2232, 2259, 2260, 2341, 2340
2233, 2260, 2261, 2342, 2341
2234, 2261, 2262, 2343, 2342
2235, 2262, 2263, 2344, 2343
2236, 2263, 2264, 2345, 2344
2237, 2264, 2265, 2346, 2345
2238, 2265, 2266, 2347, 2346
2239, 2266, 2267, 2348, 2347
2240, 2267, 2268, 2349, 2348
2241, 2269, 2270, 2351, 2350
2242, 2270, 2271, 2352, 2351
2243, 2271, 2272, 2353, 2352
2244, 2272, 2273, 2354, 2353
2245, 2273, 2274, 2355, 2354
2246, 2274, 2275, 2356, 2355
2247, 2275, 2276, 2357, 2356
2248, 2276, 2277, 2358, 2357
2249, 2277, 2278, 2359, 2358
2250, 2278, 2279, 2360, 2359
2251, 2279, 2280, 2361, 2360
2252, 2280, 2281, 2362, 2361
2253, 2281, 2282, 2363, 2362
2254, 2282, 2283, 2364, 2363
2255, 2283, 2284, 2365, 2364
2256, 2284, 2285, 2366, 2365
2257, 2285, 2286, 2367, 2366
2258, 2286, 2287, 2368, 2367
2259, 2287, 2288, 2369, 2368
2260, 2288, 2289, 2370, 2369
2261, 2289, 2290, 2371, 2370
2262, 2290, 2291, 2372, 2371
2263, 2291, 2292, 2373, 2372
2264, 2292, 2293, 2374, 2373
2265, 2293, 2294, 2375, 2374
2266, 2294, 2295, 2376, 2375
2267, 2295, 2296, 2377, 2376
2268, 2296, 2297, 2378, 2377
2269, 2297, 2298, 2379, 2378
2270, 2298, 2299, 2380, 2379
2271, 2299, 2300, 2381, 2380
2272, 2300, 2301, 2382, 2381
2273, 2301, 2302, 2383, 2382
2274, 2302, 2303, 2384, 2383
2275, 2303, 2304, 2385, 2384
2276, 2304, 2305, 2386, 2385
2277, 2305, 2306, 2387, 2386
2278, 2306, 2307, 2388, 2387
2279, 2307, 2308, 2389, 2388
2280, 2308, 2309, 2390, 2389
2281, 2309, 2310, 2391, 2390
2282, 2310, 2311, 2392, 2391
2283, 2311, 2312, 2393, 2392
2284, 2312, 2313, 2394, 2393
2285, 2313, 2314, 2395, 2394
2286, 2314, 2315, 2396, 2395
2287, 2315, 2316, 2397, 2396
2288, 2316, 2317, 2398, 2397
2289, 2317, 2318, 2399, 2398
2290, 2318, 2319, 2400, 2399
2291, 2319, 2320, 2401, 2400
2292, 2320, 2321, 2402, 2401
2293, 2321, 2322, 2403, 2402
2294, 2322, 2323, 2404, 2403
2295, 2323, 2324, 2405, 2404
2296, 2324, 2325, 2406, 2405
2297, 2325, 2326, 2407, 2406
2298, 2326, 2327, 2408, 2407
2299, 2327, 2328, 2409, 2408
2300, 2328, 2329, 2410, 2409
2301, 2329, 2330, 2411, 2410
2302, 2330, 2331, 2412, 2411
2303, 2331, 2332, 2413, 2412
2304, 2332, 2333, 2414, 2413
2305, 2333, 2334, 2415, 2414
2306, 2334, 2335, 2416, 2415
2307, 2335, 2336, 2417, 2416
2308, 2336, 2337, 2418, 2417
2309, 2337, 2338, 2419, 2418
2310, 2338, 2339, 2420, 2419
2311, 2339, 2340, 2421, 2420
2312, 2340, 2341, 2422, 2421
2313, 2341, 2342, 2423, 2422
2314, 2342, 2343, 2424, 2423
2315, 2343, 2344, 2425, 2424
2316, 2344, 2345, 2426, 2425
2317, 2345, 2346, 2427, 2426
2318, 2346, 2347, 2428, 2427
2319, 2347, 2348, 2429, 2428
2320, 2348, 2349, 2430, 2429
2321, 2350, 2351, 2432, 2431
2322, 2351, 2352, 2433, 2432
2323, 2352, 2353, 2434, 2433
2324, 2353, 2354, 2435, 2434
2325, 2354, 2355, 2436, 2435
2326, 2355, 2356, 2437, 2436
2327, 2356, 2357, 2438, 2437
2328, 2357, 2358, 2439, 2438
2329, 2358, 2359, 2440, 2439
2330, 2359, 2360, 2441, 2440
2331, 2360, 2361, 2442, 2441
2332, 2361, 2362, 2443, 2442
2333, 2362, 2363, 2444, 2443
2334, 2363, 2364, 2445, 2444
2335, 2364, 2365, 2446, 2445
2336, 2365, 2366, 2447, 2446
2337, 2366, 2367, 2448, 2447
2338, 2367, 2368, 2449, 2448
2339, 2368, 2369, 2450, 2449
2340, 2369, 2370, 2451, 2450
2341, 2370, 2371, 2452, 2451
2342, 2371, 2372, 2453, 2452
2343, 2372, 2373, 2454, 2453
2344, 2373, 2374, 2455, 2454
2345, 2374, 2375, 2456, 2455
2346, 2375, 2376, 2457, 2456
2347, 2376, 2377, 2458, 2457
2348, 2377, 2378, 2459, 2458
2349, 2378, 2379, 2460, 2459
2350, 2379, 2380, 2461, 2460
2351, 2380, 2381, 2462, 2461
2352, 2381, 2382, 2463, 2462
2353, 2382, 2383, 2464, 2463
2354, 2383, 2384, 2465, 2464
2355, 2384, 2385, 2466, 2465
2356, 2385, 2386, 2467, 2466
2357, 2386, 2387, 2468, 2467
2358, 2387, 2388, 2469, 2468
2359, 2388, 2389, 2470, 2469
2360, 2389, 2390, 2471, 2470
2361, 2390, 2391, 2472, 2471
2362, 2391, 2392, 2473, 2472
2363, 2392, 2393, 2474, 2473
2364, 2393, 2394, 2475, 2474
2365, 2394, 2395, 2476, 2475
2366, 2395, 2396, 2477, 2476
2367, 2396, 2397, 2478, 2477
2368, 2397, 2398, 2479, 2478
2369, 2398, 2399, 2480, 2479
2370, 2399, 2400, 2481, 2480
2371, 2400, 2401, 2482, 2481
2372, 2401, 2402, 2483, 2482
2373, 2402, 2403, 2484, 2483
2374, 2403, 2404, 2485, 2484
2375, 2404, 2405, 2486, 2485
2376, 2405, 2406, 2487, 2486
2377, 2406, 2407, 2488, 2487
2378, 2407, 2408, 2489, 2488
2379, 2408, 2409, 2490, 2489
2380, 2409, 2410, 2491, 2490
2381, 2410, 2411, 2492, 2491
2382, 2411, 2412, 2493, 2492
2383, 2412, 2413, 2494, 2493
2384, 2413, 2414, 2495, 2494
2385, 2414, 2415, 2496, 2495
2386, 2415, 2416, 2497, 2496
2387, 2416, 2417, 2498, 2497
2388, 2417, 2418, 2499, 2498
2389, 2418, 2419, 2500, 2499
2390, 2419, 2420, 2501, 2500
2391, 2420, 2421, 2502, 2501
2392, 2421, 2422, 2503, 2502
2393, 2422, 2423, 2504, 2503
2394, 2423, 2424, 2505, 2504
2395, 2424, 2425, 2506, 2505
2396, 2425, 2426, 2507, 2506
2397, 2426, 2427, 2508, 2507
2398, 2427, 2428, 2509, 2508
2399, 2428, 2429, 2510, 2509
2400, 2429, 2430, 2511, 2510
2401, 2431, 2432, 2513, 2512
2402, 2432, 2433, 2514, 2513
2403, 2433, 2434, 2515, 2514
2404, 2434, 2435, 2516, 2515
2405, 2435, 2436, 2517, 2516
2406, 2436, 2437, 2518, 2517
2407, 2437, 2438, 2519, 2518
2408, 2438, 2439, 2520, 2519
2409, 2439, 2440, 2521, 2520
2410, 2440, 2441, 2522, 2521
2411, 2441, 2442, 2523, 2522
2412, 2442, 2443, 2524, 2523
2413, 2443, 2444, 2525, 2524
2414, 2444, 2445, 2526, 2525
2415, 2445, 2446, 2527, 2526
2416, 2446, 2447, 2528, 2527
2417, 2447, 2448, 2529, 2528
2418, 2448, 2449, 2530, 2529
2419, 2449, 2450, 2531, 2530
2420, 2450, 2451, 2532, 2531
2421, 2451, 2452, 2533, 2532
2422, 2452, 2453, 2534, 2533
2423, 2453, 2454, 2535, 2534
2424, 2454, 2455, 2536, 2535
2425, 2455, 2456, 2537, 2536
2426, 2456, 2457, 2538, 2537
2427, 2457, 2458, 2539, 2538
2428, 2458, 2459, 2540, 2539
2429, 2459, 2460, 2541, 2540
2430, 2460, 2461, 2542, 2541
2431, 2461, 2462, 2543, 2542
2432, 2462, 2463, 2544, 2543
2433, 2463, 2464, 2545, 2544
2434, 2464, 2465, 2546, 2545
2435, 2465, 2466, 2547, 2546
2436, 2466, 2467, 2548, 2547
2437, 2467, 2468, 2549, 2548
2438, 2468, 2469, 2550, 2549
2439, 2469, 2470, 2551, 2550
2440, 2470, 2471, 2552, 2551
2441, 2471, 2472, 2553, 2552
2442, 2472, 2473, 2554, 2553
2443, 2473, 2474, 2555, 2554
2444, 2474, 2475, 2556, 2555
2445, 2475, 2476, 2557, 2556
2446, 2476, 2477, 2558, 2557
2447, 2477, 2478, 2559, 2558
2448, 2478, 2479, 2560, 2559
2449, 2479, 2480, 2561, 2560
2450, 2480, 2481, 2562, 2561
2451, 2481, 2482, 2563, 2562
2452, 2482, 2483, 2564, 2563
2453, 2483, 2484, 2565, 2564
2454, 2484, 2485, 2566, 2565
2455, 2485, 2486, 2567, 2566
2456, 2486, 2487, 2568, 2567
2457, 2487, 2488, 2569, 2568
2458, 2488, 2489, 2570, 2569
2459, 2489, 2490, 2571, 2570
2460, 2490, 2491, 2572, 2571
2461, 2491, 2492, 2573, 2572
2462, 2492, 2493, 2574, 2573
2463, 2493, 2494, 2575, 2574
2464, 2494, 2495, 2576, 2575
2465, 2495, 2496, 2577, 2576
2466, 2496, 2497, 2578, 2577
2467, 2497, 2498, 2579, 2578
2468, 2498, 2499, 2580, 2579
2469, 2499, 2500, 2581, 2580
2470, 2500, 2501, 2582, 2581
2471, 2501, 2502, 2583, 2582
2472, 2502, 2503, 2584, 2583
2473, 2503, 2504, 2585, 2584
2474, 2504, 2505, 2586, 2585
2475, 2505, 2506, 2587, 2586
2476, 2506, 2507, 2588, 2587
2477, 2507, 2508, 2589, 2588
2478, 2508, 2509, 2590, 2589
2479, 2509, 2510, 2591, 2590
2480, 2510, 2511, 2592, 2591
2481, 2512, 2513, 2594, 2593
2482, 2513, 2514, 2595, 2594
2483, 2514, 2515, 2596, 2595
2484, 2515, 2516, 2597, 2596
2485, 2516, 2517, 2598, 2597
2486, 2517, 2518, 2599, 2598
2487, 2518, 2519, 2600, 2599
2488, 2519, 2520, 2601, 2600
2489, 2520, 2521, 2602, 2601
2490, 2521, 2522, 2603, 2602
2491, 2522, 2523, 2604, 2603
2492, 2523, 2524, 2605, 2604
2493, 2524, 2525, 2606, 2605
2494, 2525, 2526, 2607, 2606
2495, 2526, 2527, 2608, 2607
2496, 2527, 2528, 2609, 2608
2497, 2528, 2529, 2610, 2609
2498, 2529, 2530, 2611, 2610
2499, 2530, 2531, 2612, 2611
2500, 2531, 2532, 2613, 2612
2501, 2532, 2533, 2614, 2613
2502, 2533, 2534, 2615, 2614
2503, 2534, 2535, 2616, 2615
2504, 2535, 2536, 2617, 2616
2505, 2536, 2537, 2618, 2617
2506, 2537, 2538, 2619, 2618
2507, 2538, 2539, 2620, 2619
2508, 2539, 2540, 2621, 2620
2509, 2540, 2541, 2622, 2621
2510, 2541, 2542, 2623, 2622
2511, 2542, 2543, 2624, 2623
2512, 2543, 2544, 2625, 2624
2513, 2544, 2545, 2626, 2625
2514, 2545, 2546, 2627, 2626
2515, 2546, 2547, 2628, 2627
2516, 2547, 2548, 2629, 2628
2517, 2548, 2549, 2630, 2629
2518, 2549, 2550, 2631, 2630
2519, 2550, 2551, 2632, 2631
2520, 2551, 2552, 2633, 2632
2521, 2552, 2553, 2634, 2633
2522, 2553, 2554, 2635, 2634
2523, 2554, 2555, 2636, 2635
2524, 2555, 2556, 2637, 2636
2525, 2556, 2557, 2638, 2637
2526, 2557, 2558, 2639, 2638
2527, 2558, 2559, 2640, 2639
2528, 2559, 2560, 2641, 2640
2529, 2560, 2561, 2642, 2641
2530, 2561, 2562, 2643, 2642
2531, 2562, 2563, 2644, 2643
2532, 2563, 2564, 2645, 2644
2533, 2564, 2565, 2646, 2645
2534, 2565, 2566, 2647, 2646
2535, 2566, 2567, 2648, 2647
2536, 2567, 2568, 2649, 2648
2537, 2568, 2569, 2650, 2649
2538, 2569, 2570, 2651, 2650
2539, 2570, 2571, 2652, 2651
2540, 2571, 2572, 2653, 2652
2541, 2572, 2573, 2654, 2653
2542, 2573, 2574, 2655, 2654
2543, 2574, 2575, 2656, 2655
2544, 2575, 2576, 2657, 2656
2545, 2576, 2577, 2658, 2657
2546, 2577, 2578, 2659, 2658
2547, 2578, 2579, 2660, 2659
2548, 2579, 2580, 2661, 2660
2549, 2580, 2581, 2662, 2661
2550, 2581, 2582, 2663, 2662
2551, 2582, 2583, 2664, 2663
2552, 2583, 2584, 2665, 2664
2553, 2584, 2585, 2666, 2665
2554, 2585, 2586, 2667, 2666
2555, 2586, 2587, 2668, 2667
2556, 2587, 2588, 2669, 2668
2557, 2588, 2589, 2670, 2669
2558, 2589, 2590, 2671, 2670
2559, 2590, 2591, 2672, 2671
2560, 2591, 2592, 2673, 2672
2561, 2593, 2594, 2675, 2674
2562, 2594, 2595, 2676, 2675
2563, 2595, 2596, 2677, 2676
2564, 2596, 2597, 2678, 2677
2565, 2597, 2598, 2679, 2678
2566, 2598, 2599, 2680, 2679
2567, 2599, 2600, 2681, 2680
2568, 2600, 2601, 2682, 2681
2569, 2601, 2602, 2683, 2682
2570, 2602, 2603, 2684, 2683
2571, 2603, 2604, 2685, 2684
2572, 2604, 2605, 2686, 2685
2573, 2605, 2606, 2687, 2686
2574, 2606, 2607, 2688, 2687
2575, 2607, 2608, 2689, 2688
2576, 2608, 2609, 2690, 2689
2577, 2609, 2610, 2691, 2690
2578, 2610, 2611, 2692, 2691
2579, 2611, 2612, 2693, 2692
2580, 2612, 2613, 2694, 2693
2581, 2613, 2614, 2695, 2694
2582, 2614, 2615, 2696, 2695
2583, 2615, 2616, 2697, 2696
2584, 2616, 2617, 2698, 2697
2585, 2617, 2618, 2699, 2698
2586, 2618, 2619, 2700, 2699
2587, 2619, 2620, 2701, 2700
2588, 2620, 2621, 2702, 2701
2589, 2621, 2622, 2703, 2702
2590, 2622, 2623, 2704, 2703
2591, 2623, 2624, 2705, 2704
2592, 2624, 2625, 2706, 2705
2593, 2625, 2626, 2707, 2706
2594, 2626, 2627, 2708, 2707
2595, 2627, 2628, 2709, 2708
2596, 2628, 2629, 2710, 2709
2597, 2629, 2630, 2711, 2710
2598, 2630, 2631, 2712, 2711
2599, 2631, 2632, 2713, 2712
2600, 2632, 2633, 2714, 2713
2601, 2633, 2634, 2715, 2714
2602, 2634, 2635, 2716, 2715
2603, 2635, 2636, 2717, 2716
2604, 2636, 2637, 2718, 2717
2605, 2637, 2638, 2719, 2718
2606, 2638, 2639, 2720, 2719
2607, 2639, 2640, 2721, 2720
2608, 2640, 2641, 2722, 2721
2609, 2641, 2642, 2723, 2722
2610, 2642, 2643, 2724, 2723
2611, 2643, 2644, 2725, 2724
2612, 2644, 2645, 2726, 2725
2613, 2645, 2646, 2727, 2726
2614, 2646, 2647, 2728, 2727
2615, 2647, 2648, 2729, 2728
2616, 2648, 2649, 2730, 2729
2617, 2649, 2650, 2731, 2730
2618, 2650, 2651, 2732, 2731
2619, 2651, 2652, 2733, 2732
2620, 2652, 2653, 2734, 2733
2621, 2653, 2654, 2735, 2734
2622, 2654, 2655, 2736, 2735
2623, 2655, 2656, 2737, 2736
2624, 2656, 2657, 2738, 2737
2625, 2657, 2658, 2739, 2738
2626, 2658, 2659, 2740, 2739
2627, 2659, 2660, 2741, 2740
2628, 2660, 2661, 2742, 2741
2629, 2661, 2662, 2743, 2742
2630, 2662, 2663, 2744, 2743
2631, 2663, 2664, 2745, 2744
2632, 2664, 2665, 2746, 2745
2633, 2665, 2666, 2747, 2746
2634, 2666, 2667, 2748, 2747
2635, 2667, 2668, 2749, 2748
2636, 2668, 2669, 2750, 2749
2637, 2669, 2670, 2751, 2750
2638, 2670, 2671, 2752, 2751
2639, 2671, 2672, 2753, 2752
2640, 2672, 2673, 2754, 2753
2641, 2674, 2675, 2756, 2755
2642, 2675, 2676, 2757, 2756
2643, 2676, 2677, 2758, 2757
2644, 2677, 2678, 2759, 2758
2645, 2678, 2679, 2760, 2759
2646, 2679, 2680, 2761, 2760
2647, 2680, 2681, 2762, 2761
2648, 2681, 2682, 2763, 2762
2649, 2682, 2683, 2764, 2763
2650, 2683, 2684, 2765, 2764
2651, 2684, 2685, 2766, 2765
2652, 2685, 2686, 2767, 2766
2653, 2686, 2687, 2768, 2767
2654, 2687, 2688, 2769, 2768
2655, 2688, 2689, 2770, 2769
2656, 2689, 2690, 2771, 2770
2657, 2690, 2691, 2772, 2771
2658, 2691, 2692, 2773, 2772
2659, 2692, 2693, 2774, 2773
2660, 2693, 2694, 2775, 2774
2661, 2694, 2695, 2776, 2775
2662, 2695, 2696, 2777, 2776
2663, 2696, 2697, 2778, 2777
2664, 2697, 2698, 2779, 2778
2665, 2698, 2699, 2780, 2779
2666, 2699, 2700, 2781, 2780
2667, 2700, 2701, 2782, 2781
2668, 2701, 2702, 2783, 2782
2669, 2702, 2703, 2784, 2783
2670, 2703, 2704, 2785, 2784
2671, 2704, 2705, 2786, 2785
2672, 2705, 2706, 2787, 2786
2673, 2706, 2707, 2788, 2787
2674, 2707, 2708, 2789, 2788
2675, 2708, 2709, 2790, 2789
2676, 2709, 2710, 2791, 2790
2677, 2710, 2711, 2792, 2791
2678, 2711, 2712, 2793, 2792
2679, 2712, 2713, 2794, 2793
2680, 2713, 2714, 2795, 2794
2681, 2714, 2715, 2796, 2795
2682, 2715, 2716, 2797, 2796
2683, 2716, 2717, 2798, 2797
2684, 2717, 2718, 2799, 2798
2685, 2718, 2719, 2800, 2799
2686, 2719, 2720, 2801, 2800
2687, 2720, 2721, 2802, 2801
2688, 2721, 2722, 2803, 2802
2689, 2722, 2723, 2804, 2803
2690, 2723, 2724, 2805, 2804
2691, 2724, 2725, 2806, 2805
2692, 2725, 2726, 2807, 2806
2693, 2726, 2727, 2808, 2807
2694, 2727, 2728, 2809, 2808
2695, 2728, 2729, 2810, 2809
2696, 2729, 2730, 2811, 2810
2697, 2730, 2731, 2812, 2811
2698, 2731, 2732, 2813, 2812
2699, 2732, 2733, 2814, 2813
2700, 2733, 2734, 2815, 2814
2701, 2734, 2735, 2816, 2815
2702, 2735, 2736, 2817, 2816
2703, 2736, 2737, 2818, 2817
2704, 2737, 2738, 2819, 2818
2705, 2738, 2739, 2820, 2819
2706, 2739, 2740, 2821, 2820
2707, 2740, 2741, 2822, 2821
2708, 2741, 2742, 2823, 2822
2709, 2742, 2743, 2824, 2823
2710, 2743, 2744, 2825, 2824
2711, 2744, 2745, 2826, 2825
2712, 2745, 2746, 2827, 2826
2713, 2746, 2747, 2828, 2827
2714, 2747, 2748, 2829, 2828
2715, 2748, 2749, 2830, 2829
2716, 2749, 2750, 2831, 2830
2717, 2750, 2751, 2832, 2831
2718, 2751, 2752, 2833, 2832
2719, 2752, 2753, 2834, 2833
2720, 2753, 2754, 2835, 2834
2721, 2755, 2756, 2837, 2836
2722, 2756, 2757, 2838, 2837
2723, 2757, 2758, 2839, 2838
2724, 2758, 2759, 2840, 2839
2725, 2759, 2760, 2841, 2840
2726, 2760, 2761, 2842, 2841
2727, 2761, 2762, 2843, 2842
2728, 2762, 2763, 2844, 2843
2729, 2763, 2764, 2845, 2844
2730, 2764, 2765, 2846, 2845
2731, 2765, 2766, 2847, 2846
2732, 2766, 2767, 2848, 2847
2733, 2767, 2768, 2849, 2848
2734, 2768, 2769, 2850, 2849
2735, 2769, 2770, 2851, 2850
2736, 2770, 2771, 2852, 2851
2737, 2771, 2772, 2853, 2852
2738, 2772, 2773, 2854, 2853
2739, 2773, 2774, 2855, 2854
2740, 2774, 2775, 2856, 2855
2741, 2775, 2776, 2857, 2856
2742, 2776, 2777, 2858, 2857
2743, 2777, 2778, 2859, 2858
2744, 2778, 2779, 2860, 2859
2745, 2779, 2780, 2861, 2860
2746, 2780, 2781, 2862, 2861
2747, 2781, 2782, 2863, 2862
2748, 2782, 2783, 2864, 2863
2749, 2783, 2784, 2865, 2864
2750, 2784, 2785, 2866, 2865
2751, 2785, 2786, 2867, 2866
2752, 2786, 2787, 2868, 2867
2753, 2787, 2788, 2869, 2868
2754, 2788, 2789, 2870, 2869
2755, 2789, 2790, 2871, 2870
2756, 2790, 2791, 2872, 2871
2757, 2791, 2792, 2873, 2872
2758, 2792, 2793, 2874, 2873
2759, 2793, 2794, 2875, 2874
2760, 2794, 2795, 2876, 2875
2761, 2795, 2796, 2877, 2876
2762, 2796, 2797, 2878, 2877
2763, 2797, 2798, 2879, 2878
2764, 2798, 2799, 2880, 2879
2765, 2799, 2800, 2881, 2880
2766, 2800, 2801, 2882, 2881
2767, 2801, 2802, 2883, 2882
2768, 2802, 2803, 2884, 2883
2769, 2803, 2804, 2885, 2884
2770, 2804, 2805, 2886, 2885
2771, 2805, 2806, 2887, 2886
2772, 2806, 2807, 2888, 2887
2773, 2807, 2808, 2889, 2888
2774, 2808, 2809, 2890, 2889
2775, 2809, 2810, 2891, 2890
2776, 2810, 2811, 2892, 2891
2777, 2811, 2812, 2893, 2892
2778, 2812, 2813, 2894, 2893
2779, 2813, 2814, 2895, 2894
2780, 2814, 2815, 2896, 2895
2781, 2815, 2816, 2897, 2896
2782, 2816, 2817, 2898, 2897
2783, 2817, 2818, 2899, 2898
2784, 2818, 2819, 2900, 2899
2785, 2819, 2820, 2901, 2900
2786, 2820, 2821, 2902, 2901
2787, 2821, 2822, 2903, 2902
2788, 2822, 2823, 2904, 2903
2789, 2823, 2824, 2905, 2904
2790, 2824, 2825, 2906, 2905
2791, 2825, 2826, 2907, 2906
2792, 2826, 2827, 2908, 2907
2793, 2827, 2828, 2909, 2908
2794, 2828, 2829, 2910, 2909
2795, 2829, 2830, 2911, 2910
2796, 2830, 2831, 2912, 2911
2797, 2831, 2832, 2913, 2912
2798, 2832, 2833, 2914, 2913
2799, 2833, 2834, 2915, 2914
2800, 2834, 2835, 2916, 2915
2801, 2836, 2837, 2918, 2917
2802, 2837, 2838, 2919, 2918
2803, 2838, 2839, 2920, 2919
2804, 2839, 2840, 2921, 2920
2805, 2840, 2841, 2922, 2921
2806, 2841, 2842, 2923, 2922
2807, 2842, 2843, 2924, 2923
2808, 2843, 2844, 2925, 2924
2809, 2844, 2845, 2926, 2925
2810, 2845, 2846, 2927, 2926
2811, 2846, 2847, 2928, 2927
2812, 2847, 2848, 2929, 2928
2813, 2848, 2849, 2930, 2929
2814, 2849, 2850, 2931, 2930
2815, 2850, 2851, 2932, 2931
2816, 2851, 2852, 2933, 2932
2817, 2852, 2853, 2934, 2933
2818, 2853, 2854, 2935, 2934
2819, 2854, 2855, 2936, 2935
2820, 2855, 2856, 2937, 2936
2821, 2856, 2857, 2938, 2937
2822, 2857, 2858, 2939, 2938
2823, 2858, 2859, 2940, 2939
2824, 2859, 2860, 2941, 2940
2825, 2860, 2861, 2942, 2941
2826, 2861, 2862, 2943, 2942
2827, 2862, 2863, 2944, 2943
2828, 2863, 2864, 2945, 2944
2829, 2864, 2865, 2946, 2945
2830, 2865, 2866, 2947, 2946
2831, 2866, 2867, 2948, 2947
2832, 2867, 2868, 2949, 2948
2833, 2868, 2869, 2950, 2949
2834, 2869, 2870, 2951, 2950
2835, 2870, 2871, 2952, 2951
2836, 2871, 2872, 2953, 2952
2837, 2872, 2873, 2954, 2953
2838, 2873, 2874, 2955, 2954
2839, 2874, 2875, 2956, 2955
2840, 2875, 2876, 2957, 2956
2841, 2876, 2877, 2958, 2957
2842, 2877, 2878, 2959, 2958
2843, 2878, 2879, 2960, 2959
2844, 2879, 2880, 2961, 2960
2845, 2880, 2881, 2962, 2961
2846, 2881, 2882, 2963, 2962
2847, 2882, 2883, 2964, 2963
2848, 2883, 2884, 2965, 2964
2849, 2884, 2885, 2966, 2965
2850, 2885, 2886, 2967, 2966
2851, 2886, 2887, 2968, 2967
2852, 2887, 2888, 2969, 2968
2853, 2888, 2889, 2970, 2969
2854, 2889, 2890, 2971, 2970
2855, 2890, 2891, 2972, 2971
2856, 2891, 2892, 2973, 2972
2857, 2892, 2893, 2974, 2973
2858, 2893, 2894, 2975, 2974
2859, 2894, 2895, 2976, 2975
2860, 2895, 2896, 2977, 2976
2861, 2896, 2897, 2978, 2977
2862, 2897, 2898, 2979, 2978
2863, 2898, 2899, 2980, 2979
2864, 2899, 2900, 2981, 2980
2865, 2900, 2901, 2982, 2981
2866, 2901, 2902, 2983, 2982
2867, 2902, 2903, 2984, 2983
2868, 2903, 2904, 2985, 2984
2869, 2904, 2905, 2986, 2985
2870, 2905, 2906, 2987, 2986
2871, 2906, 2907, 2988, 2987
2872, 2907, 2908, 2989, 2988
2873, 2908, 2909, 2990, 2989
2874, 2909, 2910, 2991, 2990
2875, 2910, 2911, 2992, 2991
2876, 2911, 2912, 2993, 2992
2877, 2912, 2913, 2994, 2993
2878, 2913, 2914, 2995, 2994
2879, 2914, 2915, 2996, 2995
2880, 2915, 2916, 2997, 2996
2881, 2917, 2918, 2999, 2998
2882, 2918, 2919, 3000, 2999
2883, 2919, 2920, 3001, 3000
2884, 2920, 2921, 3002, 3001
2885, 2921, 2922, 3003, 3002
2886, 2922, 2923, 3004, 3003
2887, 2923, 2924, 3005, 3004
2888, 2924, 2925, 3006, 3005
2889, 2925, 2926, 3007, 3006
2890, 2926, 2927, 3008, 3007
2891, 2927, 2928, 3009, 3008
2892, 2928, 2929, 3010, 3009
2893, 2929, 2930, 3011, 3010
2894, 2930, 2931, 3012, 3011
2895, 2931, 2932, 3013, 3012
2896, 2932, 2933, 3014, 3013
2897, 2933, 2934, 3015, 3014
2898, 2934, 2935, 3016, 3015
2899, 2935, 2936, 3017, 3016
2900, 2936, 2937, 3018, 3017
2901, 2937, 2938, 3019, 3018
2902, 2938, 2939, 3020, 3019
2903, 2939, 2940, 3021, 3020
2904, 2940, 2941, 3022, 3021
2905, 2941, 2942, 3023, 3022
2906, 2942, 2943, 3024, 3023
2907, 2943, 2944, 3025, 3024
2908, 2944, 2945, 3026, 3025
2909, 2945, 2946, 3027, 3026
2910, 2946, 2947, 3028, 3027
2911, 2947, 2948, 3029, 3028
2912, 2948, 2949, 3030, 3029
2913, 2949, 2950, 3031, 3030
2914, 2950, 2951, 3032, 3031
2915, 2951, 2952, 3033, 3032
2916, 2952, 2953, 3034, 3033
2917, 2953, 2954, 3035, 3034
2918, 2954, 2955, 3036, 3035
2919, 2955, 2956, 3037, 3036
2920, 2956, 2957, 3038, 3037
2921, 2957, 2958, 3039, 3038
2922, 2958, 2959, 3040, 3039
2923, 2959, 2960, 3041, 3040
2924, 2960, 2961, 3042, 3041
2925, 2961, 2962, 3043, 3042
2926, 2962, 2963, 3044, 3043
2927, 2963, 2964, 3045, 3044
2928, 2964, 2965, 3046, 3045
2929, 2965, 2966, 3047, 3046
2930, 2966, 2967, 3048, 3047
2931, 2967, 2968, 3049, 3048
2932, 2968, 2969, 3050, 3049
2933, 2969, 2970, 3051, 3050
2934, 2970, 2971, 3052, 3051
2935, 2971, 2972, 3053, 3052
2936, 2972, 2973, 3054, 3053
2937, 2973, 2974, 3055, 3054
2938, 2974, 2975, 3056, 3055
2939, 2975, 2976, 3057, 3056
2940, 2976, 2977, 3058, 3057
2941, 2977, 2978, 3059, 3058
2942, 2978, 2979, 3060, 3059
2943, 2979, 2980, 3061, 3060
2944, 2980, 2981, 3062, 3061
2945, 2981, 2982, 3063, 3062
2946, 2982, 2983, 3064, 3063
2947, 2983, 2984, 3065, 3064
2948, 2984, 2985, 3066, 3065
2949, 2985, 2986, 3067, 3066
2950, 2986, 2987, 3068, 3067
2951, 2987, 2988, 3069, 3068
2952, 2988, 2989, 3070, 3069
2953, 2989, 2990, 3071, 3070
2954, 2990, 2991, 3072, 3071
2955, 2991, 2992, 3073, 3072
2956, 2992, 2993, 3074, 3073
2957, 2993, 2994, 3075, 3074
2958, 2994, 2995, 3076, 3075
2959, 2995, 2996, 3077, 3076
2960, 2996, 2997, 3078, 3077
2961, 2998, 2999, 3080, 3079
2962, 2999, 3000, 3081, 3080
2963, 3000, 3001, 3082, 3081
2964, 3001, 3002, 3083, 3082
2965, 3002, 3003, 3084, 3083
2966, 3003, 3004, 3085, 3084
2967, 3004, 3005, 3086, 3085
2968, 3005, 3006, 3087, 3086
2969, 3006, 3007, 3088, 3087
2970, 3007, 3008, 3089, 3088
2971, 3008, 3009, 3090, 3089
2972, 3009, 3010, 3091, 3090
2973, 3010, 3011, 3092, 3091
2974, 3011, 3012, 3093, 3092
2975, 3012, 3013, 3094, 3093
2976, 3013, 3014, 3095, 3094
2977, 3014, 3015, 3096, 3095
2978, 3015, 3016, 3097, 3096
2979, 3016, 3017, 3098, 3097
2980, 3017, 3018, 3099, 3098
2981, 3018, 3019, 3100, 3099
2982, 3019, 3020, 3101, 3100
2983, 3020, 3021, 3102, 3101
2984, 3021, 3022, 3103, 3102
2985, 3022, 3023, 3104, 3103
2986, 3023, 3024, 3105, 3104
2987, 3024, 3025, 3106, 3105
2988, 3025, 3026, 3107, 3106
2989, 3026, 3027, 3108, 3107
2990, 3027, 3028, 3109, 3108
2991, 3028, 3029, 3110, 3109
2992, 3029, 3030, 3111, 3110
2993, 3030, 3031, 3112, 3111
2994, 3031, 3032, 3113, 3112
2995, 3032, 3033, 3114, 3113
2996, 3033, 3034, 3115, 3114
2997, 3034, 3035, 3116, 3115
2998, 3035, 3036, 3117, 3116
2999, 3036, 3037, 3118, 3117
3000, 3037, 3038, 3119, 3118
3001, 3038, 3039, 3120, 3119
3002, 3039, 3040, 3121, 3120
3003, 3040, 3041, 3122, 3121
3004, 3041, 3042, 3123, 3122
3005, 3042, 3043, 3124, 3123
3006, 3043, 3044, 3125, 3124
3007, 3044, 3045, 3126, 3125
3008, 3045, 3046, 3127, 3126
3009, 3046, 3047, 3128, 3127
3010, 3047, 3048, 3129, 3128
3011, 3048, 3049, 3130, 3129
3012, 3049, 3050, 3131, 3130
3013, 3050, 3051, 3132, 3131
3014, 3051, 3052, 3133, 3132
3015, 3052, 3053, 3134, 3133
3016, 3053, 3054, 3135, 3134
3017, 3054, 3055, 3136, 3135
3018, 3055, 3056, 3137, 3136
3019, 3056, 3057, 3138, 3137
3020, 3057, 3058, 3139, 3138
3021, 3058, 3059, 3140, 3139
3022, 3059, 3060, 3141, 3140
3023, 3060, 3061, 3142, 3141
3024, 3061, 3062, 3143, 3142
3025, 3062, 3063, 3144, 3143
3026, 3063, 3064, 3145, 3144
3027, 3064, 3065, 3146, 3145
3028, 3065, 3066, 3147, 3146
3029, 3066, 3067, 3148, 3147
3030, 3067, 3068, 3149, 3148
3031, 3068, 3069, 3150, 3149
3032, 3069, 3070, 3151, 3150
3033, 3070, 3071, 3152, 3151
3034, 3071, 3072, 3153, 3152
3035, 3072, 3073, 3154, 3153
3036, 3073, 3074, 3155, 3154
3037, 3074, 3075, 3156, 3155
3038, 3075, 3076, 3157, 3156
3039, 3076, 3077, 3158, 3157
3040, 3077, 3078, 3159, 3158
3041, 3079, 3080, 3161, 3160
3042, 3080, 3081, 3162, 3161
3043, 3081, 3082, 3163, 3162
3044, 3082, 3083, 3164, 3163
3045, 3083, 3084, 3165, 3164
3046, 3084, 3085, 3166, 3165
3047, 3085, 3086, 3167, 3166
3048, 3086, 3087, 3168, 3167
3049, 3087, 3088, 3169, 3168
3050, 3088, 3089, 3170, 3169
3051, 3089, 3090, 3171, 3170
3052, 3090, 3091, 3172, 3171
3053, 3091, 3092, 3173, 3172
3054, 3092, 3093, 3174, 3173
3055, 3093, 3094, 3175, 3174
3056, 3094, 3095, 3176, 3175
3057, 3095, 3096, 3177, 3176
3058, 3096, 3097, 3178, 3177
3059, 3097, 3098, 3179, 3178
3060, 3098, 3099, 3180, 3179
3061, 3099, 3100, 3181, 3180
3062, 3100, 3101, 3182, 3181
3063, 3101, 3102, 3183, 3182
3064, 3102, 3103, 3184, 3183
3065, 3103, 3104, 3185, 3184
3066, 3104, 3105, 3186, 3185
3067, 3105, 3106, 3187, 3186
3068, 3106, 3107, 3188, 3187
3069, 3107, 3108, 3189, 3188
3070, 3108, 3109, 3190, 3189
3071, 3109, 3110, 3191, 3190
3072, 3110, 3111, 3192, 3191
3073, 3111, 3112, 3193, 3192
3074, 3112, 3113, 3194, 3193
3075, 3113, 3114, 3195, 3194
3076, 3114, 3115, 3196, 3195
3077, 3115, 3116, 3197, 3196
3078, 3116, 3117, 3198, 3197
3079, 3117, 3118, 3199, 3198
3080, 3118, 3119, 3200, 3199
3081, 3119, 3120, 3201, 3200
3082, 3120, 3121, 3202, 3201
3083, 3121, 3122, 3203, 3202
3084, 3122, 3123, 3204, 3203
3085, 3123, 3124, 3205, 3204
3086, 3124, 3125, 3206, 3205
3087, 3125, 3126, 3207, 3206
3088, 3126, 3127, 3208, 3207
3089, 3127, 3128, 3209, 3208
3090, 3128, 3129, 3210, 3209
3091, 3129, 3130, 3211, 3210
3092, 3130, 3131, 3212, 3211
3093, 3131, 3132, 3213, 3212
3094, 3132, 3133, 3214, 3213
3095, 3133, 3134, 3215, 3214
3096, 3134, 3135, 3216, 3215
3097, 3135, 3136, 3217, 3216
3098, 3136, 3137, 3218, 3217
3099, 3137, 3138, 3219, 3218
3100, 3138, 3139, 3220, 3219
3101, 3139, 3140, 3221, 3220
3102, 3140, 3141, 3222, 3221
3103, 3141, 3142, 3223, 3222
3104, 3142, 3143, 3224, 3223
3105, 3143, 3144, 3225, 3224
3106, 3144, 3145, 3226, 3225
3107, 3145, 3146, 3227, 3226
3108, 3146, 3147, 3228, 3227
3109, 3147, 3148, 3229, 3228
3110, 3148, 3149, 3230, 3229
3111, 3149, 3150, 3231, 3230
3112, 3150, 3151, 3232, 3231
3113, 3151, 3152, 3233, 3232
3114, 3152, 3153, 3234, 3233
3115, 3153, 3154, 3235, 3234
3116, 3154, 3155, 3236, 3235
3117, 3155, 3156, 3237, 3236
3118, 3156, 3157, 3238, 3237
3119, 3157, 3158, 3239, 3238
3120, 3158, 3159, 3240, 3239
3121, 3160, 3161, 3242, 3241
3122, 3161, 3162, 3243, 3242
3123, 3162, 3163, 3244, 3243
3124, 3163, 3164, 3245, 3244
3125, 3164, 3165, 3246, 3245
3126, 3165, 3166, 3247, 3246
3127, 3166, 3167, 3248, 3247
3128, 3167, 3168, 3249, 3248
3129, 3168, 3169, 3250, 3249
3130, 3169, 3170, 3251, 3250
3131, 3170, 3171, 3252, 3251
3132, 3171, 3172, 3253, 3252
3133, 3172, 3173, 3254, 3253
3134, 3173, 3174, 3255, 3254
3135, 3174, 3175, 3256, 3255
3136, 3175, 3176, 3257, 3256
3137, 3176, 3177, 3258, 3257
3138, 3177, 3178, 3259, 3258
3139, 3178, 3179, 3260, 3259
3140, 3179, 3180, 3261, 3260
3141, 3180, 3181, 3262, 3261
3142, 3181, 3182, 3263, 3262
3143, 3182, 3183, 3264, 3263
3144, 3183, 3184, 3265, 3264
3145, 3184, 3185, 3266, 3265
3146, 3185, 3186, 3267, 3266
3147, 3186, 3187, 3268, 3267
3148, 3187, 3188, 3269, 3268
3149, 3188, 3189, 3270, 3269
3150, 3189, 3190, 3271, 3270
3151, 3190, 3191, 3272, 3271
3152, 3191, 3192, 3273, 3272
3153, 3192, 3193, 3274, 3273
3154, 3193, 3194, 3275, 3274
3155, 3194, 3195, 3276, 3275
3156, 3195, 3196, 3277, 3276
3157, 3196, 3197, 3278, 3277
3158, 3197, 3198, 3279, 3278
3159, 3198, 3199, 3280, 3279
3160, 3199, 3200, 3281, 3280
3161, 3200, 3201, 3282, 3281
3162, 3201, 3202, 3283, 3282
3163, 3202, 3203, 3284, 3283
3164, 3203, 3204, 3285, 3284
3165, 3204, 3205, 3286, 3285
3166, 3205, 3206, 3287, 3286
3167, 3206, 3207, 3288, 3287
3168, 3207, 3208, 3289, 3288
3169, 3208, 3209, 3290, 3289
3170, 3209, 3210, 3291, 3290
3171, 3210, 3211, 3292, 3291
3172, 3211, 3212, 3293, 3292
3173, 3212, 3213, 3294, 3293
3174, 3213, 3214, 3295, 3294
3175, 3214, 3215, 3296, 3295
3176, 3215, 3216, 3297, 3296
3177, 3216, 3217, 3298, 3297
3178, 3217, 3218, 3299, 3298
3179, 3218, 3219, 3300, 3299
3180, 3219, 3220, 3301, 3300
3181, 3220, 3221, 3302, 3301
3182, 3221, 3222, 3303, 3302
3183, 3222, 3223, 3304, 3303
3184, 3223, 3224, 3305, 3304
3185, 3224, 3225, 3306, 3305
3186, 3225, 3226, 3307, 3306
3187, 3226, 3227, 3308, 3307
3188, 3227, 3228, 3309, 3308
3189, 3228, 3229, 3310, 3309
3190, 3229, 3230, 3311, 3310
3191, 3230, 3231, 3312, 3311
3192, 3231, 3232, 3313, 3312
3193, 3232, 3233, 3314, 3313
3194, 3233, 3234, 3315, 3314
3195, 3234, 3235, 3316, 3315
3196, 3235, 3236, 3317, 3316
3197, 3236, 3237, 3318, 3317
3198, 3237, 3238, 3319, 3318
3199, 3238, 3239, 3320, 3319
3200, 3239, 3240, 3321, 3320
*Nset, nset=ROOT
1, 82, 163, 244, 325, 406, 487, 568, 649, 730, 811, 892, 973, 1054, 1135, 1216
1297, 1378, 1459, 1540, 1621, 1702, 1783, 1864, 1945, 2026, 2107, 2188, 2269, 2350, 2431, 2512
2593, 2674, 2755, 2836, 2917, 2998, 3079, 3160, 3241
*Nset, nset=RIGHT
81, 162, 243, 324, 405, 486, 567, 648, 729, 810, 891, 972, 1053, 1134, 1215, 1296
1377, 1458, 1539, 1620, 1701, 1782, 1863, 1944, 2025, 2106, 2187, 2268, 2349, 2430, 2511, 2592
2673, 2754, 2835, 2916, 2997, 3078, 3159, 3240, 3321
*Node, nset=RP
3322, 200, 50, 0.0
*Surface, type=NODE, name=RIGHT_SURFACE
RIGHT, 1.0
*Coupling, constraint name=RIGHT_RBE2, ref node=RP, surface=RIGHT_SURFACE
*Kinematic
1, 6
*Material, name=STEEL
*Elastic
206000, 0.29999999999999999
*Plastic
1000000000, 0.0
*Shell Section, elset=EALL, material=STEEL
1, 5
*Step, name=COMPRESSION, nlgeom=YES, inc=200
*Static, direct
0.025, 1.0
*Boundary
ROOT, 1, 6, 0.0
RP, 2, 6, 0.0
RP, 1, 1, -0.20000000000000001
*Output, field, frequency=1
*Node Output
U, RF
*Element Output, directions=YES, allsectionpts
S, PEEQ
*End Step
